XYZ.scell: Al256                        
   1.00000000000000     
    16.2000548000000002    0.0000000000000000    0.0000000000000000
     0.0000000000000000   16.2000548000000002    0.0000000000000000
     0.0000000000000000    0.0000000000000000   16.2000548000000002
   Al
   256
Direct
  0.9981403566117072  0.9915892264464398  0.0090344921324522
  0.0089112782309575  0.1163610645097773  0.1342051548665995
  0.1259033188460875  0.9938330138608015  0.1245619520797722
  0.1293146791284039  0.1375207374169790  0.0014631088507673
  0.9996586781406993  0.9903412285711162  0.2607275669350700
  0.0002733536852765  0.1218736719397256  0.3798167610216930
  0.1291322015936612  0.0042251398012037  0.3726327587606471
  0.1306602049509772  0.1217133368710235  0.2586144414173829
  0.9941115299012999  0.9946165883980292  0.5056641342244284
  0.0002596087463818  0.1261117914301768  0.6222082531895650
  0.1282431293755570  0.0060420356787417  0.6274682370001866
  0.1262164403225587  0.1252393550171288  0.5081747692013191
  0.9954118806770827  0.0061821286075021  0.7637178894976243
  0.9925800974255352  0.1233291517294237  0.8784978401594479
  0.1173201229539285  0.0103021556018364  0.8768567541802414
  0.1312128177864377  0.1387897893728234  0.7616249600057623
  0.9953283961462113  0.2583149326945995  0.9985380263143586
  0.0003513859644972  0.3682633883792886  0.1309604517847047
  0.1134880203660276  0.2520346947265098  0.1226619156258404
  0.1225836580768128  0.3862815660201284  0.9899326935657494
  0.0052657964636112  0.2394032172421726  0.2427380943179530
  0.0059896038277772  0.3731912944845331  0.3735849278962095
  0.1368686942750501  0.2504104018255144  0.3767010719849040
  0.1333594341361827  0.3726622659706890  0.2523272965020851
  0.9990097327131303  0.2485848062598703  0.4984205262154387
  0.9922315511460028  0.3701651120526014  0.6193910741675023
  0.1231095166014814  0.2611014586378883  0.6228221487622551
  0.1273325577130831  0.3796398282722397  0.5031053828931432
  0.9962424889165402  0.2475386384085331  0.7493978906674078
  0.9947075231540193  0.3829692610518153  0.8720108117307447
  0.1165499565181564  0.2595635458953061  0.8771642027313851
  0.1267293982942427  0.3794140705361481  0.7476407372224936
  0.9940319398658106  0.4993152456360394  0.0028944864507880
  0.0007792471473071  0.6229041205112592  0.1232292918456769
  0.1236255074609502  0.5067075557168841  0.1162499771533566
  0.1109433120647580  0.6263509798268982  0.9992960753822376
  0.9952284549545152  0.4884542768358673  0.2510659961946445
  0.9962401508101272  0.6195332317413402  0.3728862562856231
  0.1259946815982887  0.5095071864549708  0.3785705776804606
  0.1272004787553581  0.6218964460316176  0.2533937629549427
  0.0027831808740829  0.4960528311280050  0.5003164209243390
  0.9958241021337222  0.6244196779103217  0.6301745490013441
  0.1226251912534836  0.5021317987771785  0.6293729016286725
  0.1130288906682497  0.6256110023355717  0.5086699274288340
  0.0033261722809249  0.5060214083020246  0.7517092720574885
  0.0016661015797712  0.6382600070706426  0.8731180235891958
  0.1152163151317998  0.5038098223919325  0.8672822198932573
  0.1284669689745545  0.6346555460749472  0.7517976391218063
  0.9958546822716182  0.7499818989247357  0.9928523597457311
  0.9958115958068144  0.8648905530949130  0.1300310690207393
  0.1203429808470733  0.7371708282897439  0.1227539350697507
  0.1356769992357948  0.8693671455866054  0.9989173153369236
  0.9995130661427105  0.7495652238857864  0.2584289461135327
  0.0005763225728461  0.8737428025350100  0.3821805922883741
  0.1314087450410770  0.7507615124400171  0.3694771746212948
  0.1253846816904856  0.8659110387132722  0.2571033324334013
  0.9984988714514635  0.7466478116807035  0.4948313536644228
  0.0163528211983076  0.8751554516075190  0.6393665477858527
  0.1290247148211114  0.7506281863367560  0.6199693571625060
  0.1341089407879999  0.8746570967261590  0.5030860135701202
  0.0075146247846262  0.7594103795561029  0.7508054891853162
  0.0074107591955802  0.8718120503002249  0.8828375057705818
  0.1268209160136299  0.7498340205972058  0.8712393645332891
  0.1370121543615548  0.8729440020696425  0.7484999105508326
  0.2583520248545499  0.0076730129235681  0.9919661842828856
  0.2528177253348614  0.1290782973642937  0.1239014360812556
  0.3786671228464922  0.0046934435370642  0.1273082371762535
  0.3865384944686091  0.1238254788680801  0.9949858981487354
  0.2550430454938907  0.0024311653565804  0.2494176356375367
  0.2549859249343748  0.1256996426053029  0.3739516906182666
  0.3872886166647997  0.9954693977582670  0.3621443520343620
  0.3716215616107341  0.1272920744614383  0.2472883201570715
  0.2611227795570005  0.0055362324444545  0.5000955735738720
  0.2473711266540563  0.1277738175648118  0.6210818468398985
  0.3691702485430093  0.0056063258360804  0.6200181933612662
  0.3863244884228509  0.1290346839504357  0.5007949487504461
  0.2488352532809586  0.9980069582221754  0.7501430182160334
  0.2459025194043867  0.1375915697760569  0.8730263064657079
  0.3749298940695278  0.0134484879549550  0.8733704721247383
  0.3732364260687948  0.1338584000373449  0.7404572537856354
  0.2486618571183017  0.2587114218944220  0.9933908772858464
  0.2371823794321772  0.3783644443522226  0.1280679619646494
  0.3821199048382112  0.2548255843244173  0.1173915031756620
  0.3681615746734211  0.3744736707507259  0.9955587285083777
  0.2487730105790252  0.2410159768587672  0.2448840046841555
  0.2534763441261478  0.3796741759213654  0.3838438769938191
  0.3800813095891606  0.2434537224638754  0.3764020335729239
  0.3668218976877591  0.3703710839784585  0.2546384000882936
  0.2613848511002012  0.2578911693927113  0.4978417644475964
  0.2432301625880851  0.3807271738730554  0.6204253144960069
  0.3844904517893681  0.2564767092331542  0.6158186020081272
  0.3740320562686186  0.3755542090296697  0.5135899204549591
  0.2609250135969079  0.2600260570588878  0.7380351429056814
  0.2503370010227020  0.3739815996551447  0.8593905535703583
  0.3681143347762679  0.2536214017515585  0.8706995678560427
  0.3766748115756641  0.3881885180269835  0.7322058578273805
  0.2399946833454107  0.5090864934901260  0.9888011416056145
  0.2469788928435316  0.6295728775144754  0.1195372447622642
  0.3595856355671542  0.5051155789858622  0.1225963007829230
  0.3754613495551763  0.6200366922865174  0.9876116340592737
  0.2531062707322420  0.5032282860067340  0.2515104044537545
  0.2489007204234611  0.6218768348916142  0.3705386326278483
  0.3706328445365580  0.5059480670094559  0.3698691753927300
  0.3766577285222107  0.6216580533467495  0.2397881677867205
  0.2445295289907839  0.5030998041027355  0.5079831801309004
  0.2451209673362639  0.6237629329897966  0.6186766043924101
  0.3742682389536832  0.5095946536037685  0.6189947846833889
  0.3695760962799332  0.6290259591771933  0.4957999871864670
  0.2480489052436363  0.5151359526608345  0.7445740073796592
  0.2486256106199226  0.6356460553931343  0.8661110410775139
  0.3645790284047330  0.4887568359825725  0.8617469330399421
  0.3795793945849240  0.6258454810591318  0.7504307584380789
  0.2460881830799266  0.7543699554072790  0.9962820544428339
  0.2408966182964635  0.8758867627505885  0.1329609222007447
  0.3651209861304470  0.7522336691539442  0.1021984724446191
  0.3843600835982977  0.8829912018102481  0.9893113761164579
  0.2642655999249462  0.7464284621240524  0.2520067695616049
  0.2593564449039689  0.8754140952698157  0.3648492906649093
  0.3842259312683208  0.7379550898032511  0.3755695683997590
  0.3853443498069278  0.8767556497162119  0.2421292859759939
  0.2503435550593373  0.7482517263007067  0.4941852939474300
  0.2551541740575541  0.8803701353528816  0.6277853139556842
  0.3707724752814811  0.7486124383478920  0.6322693511162830
  0.3730414367385008  0.8786355720706409  0.4917720237887963
  0.2525576789699134  0.7503835106743425  0.7469897063850526
  0.2546262731236509  0.8828323851293667  0.8736231687400137
  0.3705330238922890  0.7575666385382945  0.8701778442064317
  0.3767134409060953  0.8774347319180045  0.7482811479489118
  0.5112314961744985  0.9970975657390065  0.9952115553059079
  0.5037370143459262  0.1164838374373710  0.1256466237361397
  0.6249380647405955  0.9906370122606589  0.1272032939875562
  0.6264482308304949  0.1219528880649254  0.0046103960781786
  0.5017521760691216  0.0022839430983651  0.2532555684289469
  0.5075965130802774  0.1189701811625776  0.3783934634145039
  0.6253298383161410  0.9900021888054471  0.3689566846640024
  0.6248423283643517  0.1115294174363112  0.2499273454592726
  0.5016061848848783  0.9958416825332075  0.4944238179502043
  0.5060447797155595  0.1262690653256903  0.6261845803289681
  0.6310151192938325  0.0042204210480544  0.6303428955704808
  0.6307790817391388  0.1148668647651758  0.5053951001376445
  0.4976188593060501  0.0127897513905190  0.7405056970600673
  0.5166572554231966  0.1177747935999164  0.8748182283542938
  0.6347396350588752  0.0006260394672631  0.8746177392335840
  0.6334952614439711  0.1382305305024584  0.7475076536830764
  0.4933193835378082  0.2497298489714124  0.9883767493066106
  0.4905751613800935  0.3739229744827459  0.1222983068374732
  0.6070057313710056  0.2434737815008761  0.1208899633621432
  0.6207799481662262  0.3688697023392217  0.0019149419969601
  0.5022701133268590  0.2532565073142339  0.2505886248510167
  0.4852963570824538  0.3780735804142042  0.3718481522334676
  0.6271471876676730  0.2481830671466553  0.3685673652148943
  0.6269143955798823  0.3689603609002236  0.2550145190354057
  0.5084816244173915  0.2401203762508489  0.4842786378374795
  0.5110537303156225  0.3737047798687629  0.6198548408883380
  0.6263485214763006  0.2486377034610468  0.6128197510283029
  0.6105257419958514  0.3762815194186960  0.4891805122796394
  0.4994899532778622  0.2551719203409009  0.7427915423893756
  0.4912381332590496  0.3768508794787592  0.8724869884341944
  0.6138616254423175  0.2452397392586224  0.8715679786705087
  0.6314715419128214  0.3776732244703502  0.7491258916173986
  0.4866956599711361  0.4937786515083615  0.9979341804992574
  0.4965702733129484  0.6173741909125920  0.1101128023813167
  0.6219569650804203  0.4955914687698186  0.1317719209969592
  0.6212243789788429  0.6265226534954069  0.9944376682460063
  0.4972304916942719  0.4973948283792131  0.2463427673799565
  0.5074823220806111  0.6226724600455896  0.3697478987515516
  0.6180360234758349  0.4965813104772556  0.3640768839491669
  0.6205568996288067  0.6244814645069536  0.2546931483545717
  0.4858819138042481  0.5091284747235705  0.4932903284354918
  0.4919788690906849  0.6328245809192786  0.6301567391017279
  0.6360707475132051  0.5042354388368203  0.6198712327382885
  0.6218545399832111  0.6219577781301503  0.5057628434217688
  0.5009458499413503  0.5009336252204918  0.7338725044936371
  0.4967552473431995  0.6157450851179843  0.8705412901164297
  0.6281700029069565  0.5075921871648877  0.8699280612090490
  0.6179414896925340  0.6358186234272843  0.7522269275019055
  0.4928844468609093  0.7528600188735756  0.9895788259263565
  0.5032067013308795  0.8650899223061351  0.1302445568765012
  0.6259229721955912  0.7449259289050756  0.1270307576221818
  0.6358253405325009  0.8744160068009841  0.0077470390269261
  0.5087764616930365  0.7457837086673762  0.2458609131497799
  0.5034040977129203  0.8695515301389092  0.3772014584564079
  0.6176523349439837  0.7395479289725753  0.3754543519151437
  0.6249141476642642  0.8666329884999406  0.2486307619359516
  0.5062927034156914  0.7612323838469744  0.5161980479989230
  0.5055129401845595  0.8889876328709441  0.6275548277508055
  0.6331955146826300  0.7608650212922198  0.6375859840619880
  0.6421879168956828  0.8777707547910333  0.5019361100349626
  0.4912309399722009  0.7519701077008665  0.7557809161423069
  0.5049443438206808  0.8794746049813159  0.8706250949373172
  0.6220560667361634  0.7478985671652352  0.8810800223855383
  0.6294492904020760  0.8878369956742630  0.7513251920352120
  0.7454177875099938  0.9942155308791802  0.0062042591601054
  0.7459708401458532  0.1228645051176319  0.1303649068052325
  0.8704549657156031  0.9950930119755254  0.1307461670055951
  0.8841788313085250  0.1199114928607480  0.0053376400556862
  0.7504366335177951  0.9842292112585811  0.2601519132464256
  0.7415386800744946  0.1186424320619103  0.3740423161944506
  0.8826463441632625  0.9937785224175103  0.3824351814066312
  0.8748110118434582  0.1243652921484198  0.2547125001291143
  0.7569370492129047  0.0033345035952668  0.5013525601055651
  0.7511368307751768  0.1268003698281775  0.6235560480575130
  0.8827875893628938  0.0004329058275082  0.6313765787476550
  0.8737027140797466  0.1247611148915276  0.4971802187696567
  0.7639551974346205  0.0054155474309769  0.7534803502025783
  0.7465403514482506  0.1269281606714874  0.8817601962619277
  0.8748020665744627  0.9970476274283905  0.8840123506374773
  0.8817476817658841  0.1335928568598883  0.7540354239123347
  0.7522852045762698  0.2468142733828405  0.9996040040807649
  0.7397612264990069  0.3708386597783271  0.1255642171386660
  0.8667976161638817  0.2437874260690756  0.1198780832541004
  0.8685332987801643  0.3815113363294290  0.0009304841152758
  0.7469105141587173  0.2458763560334216  0.2512558357644005
  0.7426785616071500  0.3759983675389185  0.3800868513457669
  0.8708106005147093  0.2467933765717664  0.3796358026302866
  0.8787813654771741  0.3672159138918936  0.2627341236959161
  0.7455844537037555  0.2521023956163939  0.4908985468392486
  0.7398850667095617  0.3686061473299979  0.6342907141128579
  0.8633501972721594  0.2509544385346079  0.6216286825051297
  0.8654971387710086  0.3775976847314904  0.4964197226415407
  0.7519933639703248  0.2497208944183758  0.7586748917985802
  0.7402084176639074  0.3656243656714417  0.8735643086157578
  0.8690762496643417  0.2509713849208232  0.8876147085971464
  0.8648055983614885  0.3756683237983194  0.7526947253025115
  0.7354150533867551  0.4951617334622199  0.9903163961489236
  0.7410061830994541  0.6147947561539931  0.1270416756500924
  0.8637368729555466  0.4974809914318509  0.1289085019469600
  0.8749618459052230  0.6329790610211796  0.0093590606540955
  0.7552795202104471  0.4861160893008790  0.2511396349475243
  0.7437781579617518  0.6155392675753830  0.3680282170392110
  0.8693126765956284  0.4991329203566967  0.3758683198734253
  0.8700285029056271  0.6060085640933335  0.2506023218496541
  0.7417286340700607  0.4969150632939454  0.4935154972014742
  0.7580487731673711  0.6250070872690381  0.6341476467293122
  0.8753918737951831  0.4932758660984163  0.6304719194443260
  0.8780930493597245  0.6221819663718395  0.5086889181026156
  0.7589961569535604  0.5134693892750104  0.7534340318293539
  0.7459945337670608  0.6324028953304734  0.8792720172974353
  0.8748293354772499  0.5085936088694150  0.8745653585657409
  0.8701195582597228  0.6194699051849636  0.7480278157242362
  0.7443645478118877  0.7470921892171616  0.0037943666604997
  0.7564170263205598  0.8716150866664175  0.1276409738333898
  0.8778285616067540  0.7408917298035504  0.1335989649382636
  0.8671331835024281  0.8605313478726153  0.0065762021945044
  0.7480444521813249  0.7484954449429154  0.2478699704591643
  0.7536596264714726  0.8692833565889323  0.3871982124360215
  0.8752822986365913  0.7395075413430058  0.3799336905997313
  0.8788920735229815  0.8677759780376505  0.2555938928772688
  0.7463057241313746  0.7364739640024793  0.5032492957806151
  0.7619028172520950  0.8726462653241024  0.6432491332334431
  0.8881836251990313  0.7517631957320164  0.6314874406984696
  0.8791689853175735  0.8717885029890600  0.5095366026684915
  0.7567984514529521  0.7501070272877360  0.7635482280171284
  0.7481421625931690  0.8824634662468996  0.8755720250118570
  0.8720292970266433  0.7475580870892317  0.8827026301547698
  0.8841728083236348  0.8731716012451518  0.7694583282473201
 
 -0.32706228E-02 -0.14670242E-02  0.40694729E-02
 -0.29115236E-02  0.11273968E-02 -0.48028287E-02
  0.39311563E-02  0.20764763E-02 -0.38067020E-02
  0.20707917E-02  0.20750158E-02  0.38074283E-02
 -0.44018800E-03 -0.69249218E-03  0.14521045E-02
 -0.18004095E-02  0.29480194E-03  0.98961542E-02
  0.34328207E-02  0.16821226E-02 -0.33276564E-02
  0.58681006E-03 -0.51426821E-02  0.14203972E-03
 -0.36548398E-02  0.14294256E-03  0.21385198E-02
 -0.30280639E-02 -0.85939597E-03  0.19399828E-02
 -0.51972576E-02  0.20961664E-03 -0.12906452E-02
  0.88199354E-03 -0.78304969E-04 -0.19084109E-03
 -0.45266670E-02 -0.35325005E-04  0.43494546E-04
 -0.39209977E-03  0.65361107E-02  0.26494364E-02
  0.42170135E-02 -0.19820693E-02  0.46018699E-03
  0.80916842E-04 -0.30707397E-03 -0.10356326E-02
 -0.47637969E-03 -0.19712835E-02  0.72585751E-02
 -0.41514336E-03  0.30251853E-02  0.51636228E-02
 -0.22936411E-03  0.32841238E-03 -0.55564928E-03
  0.69803302E-03  0.50421170E-02  0.14933469E-02
  0.38969455E-03  0.22355289E-02  0.13946173E-04
  0.40581159E-03 -0.94942204E-03  0.73525752E-02
 -0.55089308E-03 -0.44290990E-02  0.41312680E-02
 -0.90172566E-02  0.52176891E-02 -0.61935588E-02
  0.10427912E-02  0.13996551E-02  0.89984961E-03
  0.53754009E-02  0.44209017E-02 -0.93214433E-03
 -0.21241424E-02  0.19582261E-03  0.29933700E-02
  0.57246094E-03  0.27439957E-02 -0.22640526E-02
 -0.11493568E-03  0.16284118E-03  0.50123792E-02
 -0.55707960E-02  0.23417140E-02 -0.24584123E-02
  0.91665196E-04  0.16664696E-04  0.17996769E-02
 -0.60993915E-03 -0.25462035E-02  0.13873499E-02
  0.24716141E-02 -0.12851386E-04  0.55067105E-02
  0.77254906E-03  0.64141716E-02 -0.49898256E-02
  0.80135022E-03  0.17522807E-02  0.11680716E-02
  0.26742235E-02 -0.23392365E-02  0.31755020E-02
  0.36405051E-03 -0.54357503E-02 -0.25945185E-03
  0.13032557E-02  0.31605890E-02  0.19015579E-02
  0.24111278E-02 -0.11327658E-02  0.51744025E-02
 -0.38048853E-02 -0.69845586E-03  0.68137320E-03
 -0.18006992E-02 -0.65264687E-02  0.45577656E-02
 -0.14258333E-02 -0.27185017E-03  0.53405725E-02
 -0.23397932E-02 -0.30044432E-02  0.51031172E-02
  0.96795727E-03 -0.56846783E-02 -0.22322219E-02
 -0.62111958E-03  0.39592295E-02 -0.22919145E-02
 -0.61518437E-03 -0.36729281E-03  0.90730173E-03
  0.60186026E-02 -0.31800353E-03 -0.47435023E-02
  0.69919270E-02 -0.32190793E-02  0.53227660E-02
 -0.31567549E-02 -0.14520777E-02  0.11873293E-02
 -0.36826867E-02  0.38043229E-02 -0.27765848E-02
  0.40618387E-03 -0.26755088E-02  0.22163304E-02
 -0.94232272E-03 -0.56053266E-02  0.10717338E-02
 -0.27362753E-02 -0.14110372E-02 -0.12185750E-02
  0.61248632E-03 -0.50056807E-02 -0.28231832E-02
 -0.67816249E-03  0.90263156E-03 -0.46684572E-03
  0.12043224E-02  0.20218279E-03  0.28286655E-03
 -0.52177768E-02 -0.16027152E-03  0.25425892E-02
  0.30724732E-02  0.24117582E-02  0.94255874E-03
  0.29516039E-02 -0.55865294E-02 -0.39151359E-03
  0.18860177E-02 -0.22085966E-02  0.36876045E-02
 -0.14268175E-02 -0.38488707E-02 -0.26889975E-02
  0.95361287E-03 -0.58298956E-02 -0.54541030E-05
  0.13518263E-02  0.29610808E-02 -0.13854449E-02
  0.61362609E-02  0.21850993E-02 -0.10322313E-03
  0.23413220E-02  0.26671181E-02 -0.28515803E-03
 -0.22815207E-02  0.25004920E-02 -0.47702929E-02
  0.56248082E-03 -0.96352271E-03 -0.24493143E-02
 -0.30143277E-02 -0.52727931E-02  0.80791370E-03
 -0.11520222E-02 -0.16399297E-02  0.23953036E-02
  0.10388010E-02  0.36498882E-02  0.17377914E-02
 -0.64347731E-02  0.13147352E-02  0.29430784E-03
 -0.29779111E-02 -0.38992094E-03 -0.13323786E-02
  0.57827761E-03  0.17092368E-03  0.44745408E-02
  0.35548409E-02 -0.27829173E-05 -0.76904554E-03
 -0.15179707E-03  0.13855206E-02  0.50736663E-02
 -0.20573557E-02  0.32759160E-02 -0.39342894E-03
 -0.46211479E-02  0.16538966E-02 -0.14455577E-02
  0.22239184E-02 -0.53160232E-02  0.15866686E-03
  0.38682169E-02  0.36287752E-02  0.14970517E-02
  0.32828068E-02 -0.18633714E-02  0.61205463E-03
 -0.11408982E-02 -0.24666502E-02  0.29643110E-02
 -0.25351610E-02 -0.36074523E-03 -0.43741750E-02
  0.12124866E-02 -0.27214794E-03 -0.34610701E-02
  0.16761871E-03 -0.13186688E-02 -0.32601942E-02
 -0.34478776E-02  0.73941072E-02 -0.13435973E-02
  0.27309850E-02 -0.36161706E-02 -0.31380666E-02
  0.32065194E-02  0.10006881E-03 -0.19014340E-02
  0.17938242E-02  0.13156416E-02  0.11417934E-02
  0.22261549E-03  0.32687164E-02 -0.19418341E-02
  0.56294787E-03  0.30222503E-03  0.10775655E-02
 -0.32619739E-02  0.68877644E-02 -0.15431444E-02
  0.22099744E-02 -0.14906829E-02  0.39971652E-02
  0.29118616E-02  0.86239359E-03 -0.11591743E-03
  0.16005591E-02  0.69938774E-04 -0.36920798E-02
  0.43113900E-02  0.13346437E-02 -0.51373129E-02
  0.62742079E-02 -0.80012136E-03  0.13995156E-02
  0.14494784E-02 -0.29120191E-03 -0.15391015E-02
  0.26225656E-02 -0.28299912E-02 -0.48546476E-02
 -0.39999978E-02  0.31472336E-02 -0.69596607E-03
 -0.44987080E-03 -0.13087688E-02 -0.28384451E-02
  0.22243756E-02 -0.48952538E-02  0.97648837E-03
  0.34261265E-02  0.11862264E-03 -0.96660009E-03
  0.33739073E-02 -0.31182244E-02 -0.21075818E-02
  0.29968310E-02  0.52676088E-03 -0.11137316E-03
 -0.27692983E-02  0.26008168E-03 -0.44136990E-02
 -0.26080924E-02  0.69302105E-03 -0.48302741E-02
 -0.12437441E-02  0.10973618E-02 -0.12223569E-02
  0.21759661E-02 -0.35603568E-02  0.19729897E-02
  0.23424309E-03  0.29772996E-02 -0.12867866E-02
 -0.24153834E-02 -0.42246156E-02 -0.47108780E-02
  0.50779761E-02  0.65164057E-02 -0.13942460E-02
 -0.11108153E-02  0.25349190E-02 -0.25419609E-02
 -0.67760796E-03 -0.49704898E-03  0.68714605E-02
 -0.47937540E-02  0.13885514E-02  0.68622700E-02
  0.30056968E-02  0.69316663E-04  0.35442310E-04
  0.76323238E-03 -0.36267607E-02 -0.97599409E-03
 -0.26462695E-02 -0.26273432E-03  0.76899751E-03
 -0.26595548E-02 -0.40942811E-02  0.69928389E-03
  0.48716719E-02 -0.35979326E-02 -0.44041869E-02
  0.72786337E-03 -0.40982085E-03  0.18524662E-03
  0.98003561E-03  0.63571052E-02 -0.11436059E-03
  0.24013455E-02  0.46189262E-02  0.23992846E-03
 -0.49592623E-02 -0.45999849E-02  0.27890870E-02
 -0.68928399E-02 -0.12629557E-03  0.60240393E-02
 -0.15414141E-02 -0.44249394E-02  0.26730236E-02
 -0.53864631E-02  0.48668891E-02  0.18320870E-03
 -0.22882888E-02 -0.13295352E-02 -0.56117669E-02
  0.42048327E-02 -0.32649476E-02 -0.41657723E-02
  0.25952893E-02  0.17232213E-02 -0.68671204E-03
  0.28074224E-02 -0.58170609E-02 -0.40149171E-02
  0.63441188E-02 -0.87682945E-04 -0.83264970E-02
  0.60593307E-02  0.49657455E-02 -0.36129707E-03
  0.19268809E-02  0.33293897E-02 -0.17239664E-02
  0.31788850E-03  0.91539946E-03  0.24730118E-02
 -0.66705210E-02 -0.20015671E-02 -0.33857387E-02
  0.14780371E-02  0.89598663E-03 -0.40178818E-02
 -0.20992886E-02  0.70896869E-03 -0.14353486E-02
 -0.12070667E-02 -0.68107608E-03  0.23950909E-03
 -0.15193222E-02 -0.48908028E-02 -0.15147102E-02
 -0.37996051E-03 -0.28579897E-02 -0.46955791E-03
 -0.46714992E-03  0.16040158E-02 -0.28888363E-03
 -0.80223957E-02  0.27587627E-03  0.16359521E-02
  0.14637498E-02 -0.28525337E-02  0.44354555E-02
  0.17317442E-02 -0.45336382E-03  0.50504834E-04
 -0.72945402E-03 -0.56468045E-03 -0.20401988E-02
  0.25293283E-02  0.17425206E-02 -0.13648652E-02
 -0.65733362E-02  0.20829844E-02  0.45515908E-02
  0.17536624E-02  0.19929303E-02  0.98701745E-03
 -0.99438502E-03 -0.15958089E-02 -0.47378139E-02
  0.27471273E-02 -0.45253555E-02  0.33221218E-02
 -0.16287368E-02  0.29291857E-02 -0.53565946E-02
  0.38209411E-02  0.14901523E-02  0.43129955E-03
 -0.28840924E-02 -0.12171133E-02 -0.37164645E-02
  0.72035851E-04 -0.20450692E-03 -0.55919986E-02
 -0.25992079E-02 -0.15137489E-02  0.48185653E-02
 -0.36729115E-03  0.39258928E-02 -0.48083447E-04
  0.20254877E-02  0.38996072E-03 -0.18160609E-02
 -0.34548218E-02  0.16619099E-02 -0.21864412E-02
  0.88925900E-03  0.16338593E-02  0.81815883E-03
 -0.18224456E-02  0.72469909E-03 -0.31024091E-02
  0.67458260E-03  0.60000775E-02 -0.23022241E-02
 -0.11072000E-02  0.26964441E-02  0.31583800E-02
  0.10282152E-02  0.27321414E-02  0.33065563E-03
  0.83930549E-03 -0.13869817E-02  0.60566982E-02
  0.30694821E-03  0.40046649E-02 -0.49102859E-03
 -0.31944539E-02  0.33188989E-02  0.30909079E-02
  0.20054603E-02  0.27724763E-02 -0.23881078E-02
  0.36250018E-02 -0.28612633E-02  0.41008430E-02
  0.21039521E-03  0.12079601E-02 -0.10467826E-02
 -0.70641567E-03  0.12983893E-02 -0.14540308E-02
 -0.19263555E-03 -0.12259457E-02  0.11863693E-02
 -0.12014744E-03  0.40314906E-03 -0.12419625E-02
  0.16574870E-02 -0.10309764E-02  0.44592709E-03
  0.18587835E-02 -0.17664797E-02 -0.16705920E-02
 -0.77477082E-03  0.14328859E-02 -0.72697073E-02
  0.43274545E-02 -0.56946132E-02  0.61075085E-03
  0.21201731E-02  0.29354262E-02  0.19415035E-02
 -0.20698303E-03 -0.88284655E-03 -0.24179736E-02
 -0.12220034E-02  0.28137900E-03 -0.25172772E-03
  0.36726265E-03  0.16865221E-02  0.32967053E-02
  0.20968540E-02  0.13056195E-02  0.40265115E-02
 -0.17536896E-02 -0.10942752E-02 -0.13681112E-02
 -0.62488407E-04  0.63976616E-03  0.44009701E-02
  0.15900425E-02 -0.57892000E-02 -0.15800156E-02
  0.29039536E-03  0.42605079E-02 -0.63359810E-03
 -0.94513679E-03 -0.21351838E-02 -0.30642961E-02
  0.26057997E-02  0.40892349E-02 -0.39110642E-03
 -0.48122764E-02 -0.26325829E-02  0.36215585E-03
 -0.30118713E-02 -0.45976306E-02  0.10384823E-02
  0.32543742E-02  0.26544211E-02 -0.46309063E-02
  0.31828928E-02  0.19084615E-02  0.38977361E-03
 -0.25464916E-02 -0.16688361E-02  0.20627883E-02
  0.26991664E-02  0.93878186E-04 -0.25120776E-02
 -0.41732254E-02  0.73656689E-03  0.63889916E-04
 -0.32099742E-02  0.40242822E-02 -0.63378366E-02
  0.14993828E-02 -0.60453003E-02  0.47514916E-02
  0.28272271E-02 -0.29082334E-02 -0.35425311E-03
 -0.60847857E-02  0.67889795E-03  0.27160229E-02
 -0.56050182E-03 -0.21290650E-02  0.71501605E-02
 -0.18539388E-03  0.34362580E-02  0.38282601E-03
 -0.19736732E-02  0.75079042E-02  0.83296747E-02
 -0.11047263E-02 -0.12592143E-02  0.11864404E-02
  0.15244890E-02  0.11396022E-02 -0.11673942E-02
  0.41642911E-02 -0.19650658E-02 -0.34744397E-02
 -0.12605812E-02  0.14698883E-02  0.32403962E-02
  0.13364895E-02  0.89503909E-03 -0.20902269E-03
  0.26712983E-02 -0.10842321E-02  0.84281880E-04
 -0.27653709E-02 -0.56966692E-02 -0.27548637E-02
 -0.15083504E-02  0.43124129E-02 -0.16191075E-02
 -0.11674406E-02  0.18201677E-02  0.80387680E-03
  0.18191384E-03  0.13524280E-02 -0.20423373E-02
  0.49312198E-02  0.11731615E-02 -0.13453252E-02
  0.12241686E-03 -0.12340808E-02 -0.16255518E-02
 -0.13172653E-02  0.40820036E-02  0.26326753E-02
  0.52534262E-02 -0.14322538E-02 -0.16784616E-02
 -0.43968210E-03  0.19071748E-02  0.19521828E-02
 -0.17007473E-02 -0.45120663E-02 -0.20856177E-02
 -0.44092351E-02 -0.46797788E-03 -0.10546606E-02
  0.61153376E-03  0.14206600E-02 -0.30489001E-02
  0.29381531E-02  0.22966737E-02  0.35549788E-02
 -0.65317973E-02  0.40091985E-02  0.60907025E-02
  0.16659841E-02  0.29598761E-02 -0.69326842E-04
  0.33174218E-02 -0.96519178E-03 -0.43365510E-02
  0.34455274E-02 -0.36424763E-02 -0.59488849E-03
 -0.25992618E-02 -0.15379878E-02  0.13973174E-02
  0.40204296E-02 -0.13099463E-02 -0.61041122E-03
 -0.59219332E-02  0.26264521E-02 -0.80654729E-03
 -0.36047633E-02 -0.54380519E-02  0.30726654E-02
 -0.64056658E-03  0.51695240E-02 -0.77780075E-02
 -0.14162074E-04  0.65970607E-03  0.12369175E-02
  0.46448776E-02  0.39071802E-02 -0.36061399E-02
 -0.87466255E-03  0.54955783E-02  0.11997913E-02
 -0.22995798E-02 -0.10001005E-02  0.23318319E-02
 -0.37519932E-02  0.10634205E-03  0.65155764E-03
  0.20826148E-02  0.27245211E-02  0.21521913E-02
  0.47700676E-02  0.11352324E-03 -0.17833590E-02
  0.16377868E-02  0.31705762E-02 -0.86562793E-03
  0.54832984E-02 -0.27565357E-02 -0.42815358E-02
 -0.34126426E-02  0.90223837E-03 -0.13948351E-02
  0.10973287E-02 -0.71812077E-03 -0.13485141E-02
  0.45191417E-03 -0.49393988E-02  0.11047589E-02
 -0.98035002E-02 -0.17906532E-02 -0.97113397E-03
  0.12828003E-02 -0.82333938E-02  0.13612501E-02
 -0.72261810E-02 -0.59278045E-03 -0.77442354E-03
 -0.17122970E-02  0.34685716E-03 -0.27115415E-03
  0.62065979E-02  0.65649138E-03  0.30148415E-02
  0.30188846E-02  0.14246815E-02 -0.19229086E-02
 -0.15455720E-02 -0.25979107E-02 -0.28757826E-02
  0.12101391E-02 -0.61993183E-03  0.23046376E-02
  0.17545082E-02 -0.26925871E-02  0.41466513E-03
  0.66038589E-02 -0.16835405E-02 -0.47902930E-02
  0.10632923E-02 -0.41916946E-02  0.33783434E-02
 -0.18591155E-02  0.12246373E-03 -0.65667127E-04
 -0.63515182E-02  0.11060646E-02  0.25886217E-02
  0.91297392E-03 -0.32626860E-02  0.56710977E-03
 -0.39708580E-02 -0.42244908E-02 -0.54632815E-03
 
           1
   2.00000000000000     
  0.10000000E+01  0.00000000E+00  0.00000000E+00  0.00000000E+00
  0.99773658E+00  0.99140811E+00  0.95368945E-02
  0.85518321E-02  0.11650025E+00  0.13361222E+00
  0.12638865E+00  0.99408937E+00  0.12409199E+00
  0.12957033E+00  0.13777691E+00  0.19331601E-02
  0.99960433E+00  0.99025574E+00  0.26090684E+00
  0.51081656E-04  0.12191007E+00  0.38103850E+00
  0.12955601E+00  0.44328086E-02  0.37222194E+00
  0.13073265E+00  0.12107844E+00  0.25863198E+00
  0.99366032E+00  0.99463424E+00  0.50592815E+00
  0.99988577E+00  0.12600569E+00  0.62244776E+00
  0.12760149E+00  0.60679142E-02  0.62730890E+00
  0.12632533E+00  0.12522969E+00  0.50815121E+00
  0.99485303E+00  0.61777675E-02  0.76372326E+00
  0.99253169E+00  0.12413608E+00  0.87882493E+00
  0.11784074E+00  0.10057457E-01  0.87691357E+00
  0.13122281E+00  0.13875188E+00  0.76149710E+00
  0.99526958E+00  0.25807157E+00  0.99943414E+00
  0.30013387E-03  0.36863687E+00  0.13159793E+00
  0.11345970E+00  0.25207524E+00  0.12259332E+00
  0.12266983E+00  0.38690405E+00  0.99011706E+00
  0.53139067E-02  0.23967921E+00  0.24273982E+00
  0.60397039E-02  0.37307408E+00  0.37449265E+00
  0.13680068E+00  0.24986360E+00  0.37721110E+00
  0.13224620E+00  0.37330642E+00  0.25156266E+00
  0.99913847E+00  0.24875760E+00  0.49853162E+00
  0.99289518E+00  0.37071090E+00  0.61927600E+00
  0.12284728E+00  0.26112563E+00  0.62319170E+00
  0.12740323E+00  0.37997859E+00  0.50282587E+00
  0.99622830E+00  0.24755874E+00  0.75001670E+00