XYZ.99: Mo32Nb32Ta32W32                 
   1.01461984619477     
    12.9253122000000005    0.0000000000000000    0.0000000000000000
     0.0000000000000000   12.9253122000000005    0.0000000000000000
     0.0000000000000000    0.0000000000000000   12.9253122000000005
   Mo   Nb   Ta   W 
    32    32    32    32
Direct
  0.6286132653252674  0.6155624033194159  0.1319284318950141
  0.8575310611337312  0.8753764368762621  0.3874926363101218
  0.3855371643874720  0.1458052848937657  0.6405141986708008
  0.9867556625226666  0.4733449324171291  0.2584488152426733
  0.9993332826363408  0.2514776431337657  0.0039786375634978
  0.0003918644668408  0.0056273704390024  0.9905007848630177
  0.9799807780248638  0.7567735319620839  0.7376031166806469
  0.6218493906486778  0.3496493744956148  0.1433575661230751
  0.0163317151789878  0.2529096908080039  0.2494021403507156
  0.3559800944840548  0.3867164179609629  0.3731960222981847
  0.9877054796344235  0.9931154055672765  0.2790186618083245
  0.3984010279759854  0.1240585257637413  0.3845116595564324
  0.3750280099584934  0.8734362029190210  0.8780107100971895
  0.5047362488931243  0.7325046929935540  0.4878775690841582
  0.4807886697879852  0.5213273364114961  0.9855102458447973
  0.6129916812260945  0.8855724825999083  0.6196645181774443
  0.7373163552882824  0.5211125327367003  0.9697333437688517
  0.8720506498965575  0.6432460397431886  0.6254413773837685
  0.2306928432577057  0.7521786876742523  0.5092167683295296
  0.6344182879928727  0.4077212009601675  0.6272122768164425
  0.3900856971273147  0.8826063288816135  0.1231221691083072
  0.8656717478892140  0.1228577776029449  0.1280678162407164
  0.6008250349040744  0.1095221376006068  0.3988825730611274
  0.4875867948917134  0.5000453286411892  0.4865648937170866
  0.4984568358018580  0.9870816361253391  0.2330223599816076
  0.7430209777654986  0.5117707574248389  0.7396240313371450
  0.0002698534483512  0.4821245941998589  0.9957924804835901
  0.6116411505840265  0.6047859149074896  0.3598088133122663
  0.6220285435664870  0.6394493793961327  0.8716697321533170
  0.2399263825700709  0.7529366047433373  0.2518263655787661
  0.7340885401972914  0.7496714503779666  0.4868640424456553
  0.4876090281664183  0.2896175356645985  0.7394328521791041
  0.9777908676324324  0.0171730929372714  0.4848605831163594
  0.1178320517906693  0.3807672933833742  0.8560891330332392
  0.5038353979431065  0.7510015371345279  0.0015485282149554
  0.9843797291506382  0.7347569833035349  0.2628440232549323
  0.3853897266949798  0.1449341487341429  0.1122468768892838
  0.6275738731545671  0.3759653086947325  0.8758880113414641
  0.7392786303783451  0.2372985768187520  0.0065438600275449
  0.8776057424903346  0.8810173030877420  0.1266308560728266
  0.3579131922171137  0.8718583998665547  0.6105851763065072
  0.1026907349371116  0.6016647852322238  0.1440837839239676
  0.3767039334274017  0.1338460265645514  0.8764417639464700
  0.8672970327517394  0.5900156401239770  0.3608438656454204
  0.8840494649105253  0.1166335567582463  0.8916301665860616
  0.7447607244783361  0.2414187966327747  0.2532799852873286
  0.2515119540045068  0.2470795264202955  0.9851887819955912
  0.3722107528593291  0.6313322900063753  0.3827131209432956
  0.8669817664547261  0.3580735311816892  0.1169423600964007
  0.7198169614126586  0.9870026993913074  0.5106758377635939
  0.6271941001540535  0.6225058498442044  0.5949772453042730
  0.1275712116748599  0.6319763947698731  0.8825717232146315
  0.7684503764096189  0.7452901003281969  0.7378194791512180
  0.1314866829797341  0.8608465583681243  0.1309572551093596
  0.3548481395719316  0.8663166587085692  0.3712504130557272
  0.2502728120124915  0.9855292748659319  0.2322403891893956
  0.2446218679441164  0.7581920545244116  0.7507352843071160
  0.6492364199292929  0.3758409965602850  0.3813447560620344
  0.1392177450968452  0.3788407550475498  0.3712266939264708
  0.7248091074998259  0.2251659740665172  0.5231101761112874
  0.2429504809834955  0.5057803655704655  0.7570166961018606
  0.9997745405687681  0.2562710043218122  0.4940660193381378
  0.7407625891314269  0.9831606000690234  0.2618975413944208
  0.5056777922227522  0.7488109644380384  0.7486310255825482
  0.7624194134172855  0.5190466398989385  0.4965009413470589
  0.1078281308064768  0.1240005959017176  0.1541596444122018
  0.1327313758046288  0.6288270705386451  0.6330919071388382
  0.4833333903640506  0.5105423353967651  0.2552435284031833
  0.5021641971653849  0.9908213690416817  0.7309792277031960
  0.7488963815793637  0.2272877059591296  0.7387556895572609
  0.3705774950344410  0.6435498054805763  0.6218339350244715
  0.2467077033422302  0.7736351949450815  0.9981685589487111
  0.1059329058817884  0.1266441972132229  0.8824557266546168
  0.1163571630732489  0.6144420688074086  0.3819149864374373
  0.0003224085122340  0.7547142275842367  0.9865630459142636
  0.2617151863281253  0.0018033324145956  0.9965540081388534
  0.2478315476336130  0.4954338941867349  0.2605162965432417
  0.2571205156886379  0.4961908323683054  0.0176350248957233
  0.6163259998834268  0.1107163596576155  0.8869306330945020
  0.1335954311677739  0.3802601697631182  0.6171105701925186
  0.9940893359637821  0.4981080234567209  0.5120628000992634
  0.2615757563863563  0.2403874651220177  0.2552270348205516
  0.7586589560296124  0.5084546878290902  0.2446751476463580
  0.5013631268148810  0.2546636432169481  0.2735197423067209
  0.6141325096489141  0.1266280410239623  0.6278878956431005
  0.9998276178594488  0.2611836663672131  0.7563940180859330
  0.2494051924020148  0.2522487242490581  0.7509033733273812
  0.6362582072665599  0.8608354679500253  0.1142017884948446
  0.1202853214123286  0.8626048736144625  0.3946978106213326
  0.3671473950059054  0.3725795598655993  0.1290373019739849
  0.7364759642259705  0.7520004402516772  0.2530551053088865
  0.9870582284466155  0.7356647810093662  0.5032689682124726
  0.1113363762834327  0.3716959638571966  0.1167942184967611
  0.4837015604073404  0.9880007938002834  0.5029923348639738
  0.3721882215896142  0.6292507656098549  0.8774445099812577
  0.2556710688789026  0.0045112113472499  0.7580224305846793
  0.7523015645490461  0.9908192240993371  0.9953649977421708
  0.3649427604432422  0.3946903983415343  0.6376093445480564
  0.6251986423105870  0.8854363533944903  0.8552831829409694
  0.8618720516624269  0.8797302900196419  0.6319845266762695
  0.9766935339822262  0.4722205714634484  0.7583297384102727
  0.8649967258817376  0.1268046955944167  0.3674895373201786
  0.3999058806090756  0.6318185772962781  0.1284392938071650
  0.8834986978270652  0.8709738585372205  0.8729455557666742
  0.2657240899921907  0.2555075974538116  0.4850639225445416
  0.1088604065205327  0.8651718138449097  0.8668542158959882
  0.1148941548748360  0.8840261351885046  0.6326659343136599
  0.2372109640499053  0.4998646269743623  0.5018576812510813
  0.1218730851525686  0.1337510698981006  0.6377865614170652
  0.6367051836180815  0.1063520772025121  0.1507463186774146
  0.8690254697700441  0.6178682739592517  0.8915190065975256
  0.5062035449362895  0.2685124759182230  0.5199025135131458
  0.5026759009181867  0.9932895660799718  0.0057370792222363
  0.8688765299931598  0.1312991935878675  0.6265063812838075
  0.2480905160428060  0.0002296387716530  0.4951653507053821
  0.3782304963634833  0.4046957619524638  0.8563400301493361
  0.8721313441734848  0.6390389090261503  0.1061339989117991
  0.8562962026282978  0.3599101904876454  0.3546643486363542
  0.7533624652500827  0.9866444964696457  0.7498328801966961
  0.6066731124301764  0.8697865673158174  0.3649520506933301
  0.5037926965369327  0.7334666871627544  0.2536297018633780
  0.8705813269729104  0.3685077003455384  0.8755017938945611
  0.8770338175901696  0.3735913855743441  0.6227598779426188
  0.0063736396511739  0.0073545043197823  0.7561435561950738
  0.7699830852100266  0.7493592054891908  0.9801524250126626
  0.1251983962817888  0.1075356403608480  0.3828368346857722
  0.5043155983268359  0.5176203918224092  0.7449196430267339
  0.5069666772490549  0.2906189553648614  0.0012506561179290
 
 -0.35398348E-02 -0.80412939E-02 -0.12214238E-02
 -0.40508273E-02 -0.27970040E-02  0.91788741E-02
 -0.63835247E-03 -0.42490942E-02 -0.32996147E-02
  0.34017470E-02  0.12274145E-01 -0.47019693E-02
 -0.98098045E-02  0.32197753E-02 -0.13391692E-02
 -0.34472388E-02 -0.18501787E-02 -0.18372580E-02
  0.27846937E-04 -0.83550018E-04 -0.29864366E-02
  0.56155676E-02 -0.50319373E-03  0.10158708E-02
  0.27001378E-02 -0.37267714E-02  0.45880569E-02
 -0.65552783E-03  0.52031178E-02  0.10078579E-01
 -0.45854242E-02 -0.19910196E-02 -0.11750828E-02
  0.51886126E-02  0.61807218E-02  0.74121689E-02
 -0.89747431E-03  0.48649130E-02 -0.74205451E-02
  0.54393965E-02 -0.28372903E-02  0.14195052E-02
 -0.16789485E-02  0.28173341E-02 -0.45538970E-02
 -0.33405499E-02  0.64622308E-03  0.91168107E-03
  0.54838735E-02 -0.96084962E-02 -0.59643675E-02
  0.54429396E-02 -0.71672112E-02  0.43568259E-03
 -0.59332704E-02 -0.22011528E-02 -0.63608777E-02
  0.13231970E-02  0.12683191E-02 -0.64310733E-02
  0.31075581E-02 -0.10881829E-01  0.54315809E-02
 -0.23614431E-02  0.23049520E-02 -0.11803603E-03
 -0.32524522E-02 -0.12040802E-01 -0.36703426E-02
 -0.31120137E-02 -0.57008861E-02  0.73397262E-03
  0.53565370E-02 -0.17116840E-02  0.32384727E-02
 -0.22503765E-02 -0.14745537E-02 -0.33793166E-04
  0.31543287E-02  0.29854934E-02  0.24896291E-04
 -0.40562419E-02  0.33836910E-02  0.51191201E-02
 -0.10758372E-02 -0.43106103E-02 -0.97184571E-02
  0.33389168E-02  0.16420260E-02  0.29625781E-02
 -0.65310936E-02 -0.49548383E-02 -0.18365488E-02
  0.41098028E-03  0.49067679E-02  0.47429428E-02
  0.67767862E-03  0.69162705E-02  0.11156802E-02
  0.52743136E-02  0.32876072E-02 -0.59092439E-02
 -0.12572815E-02  0.50863100E-02 -0.11015804E-02
  0.55211896E-02 -0.23302757E-02 -0.10494781E-02
  0.47470811E-03 -0.18350325E-02 -0.24170242E-02
  0.28135261E-02  0.10767571E-01 -0.29786616E-02
  0.40167682E-03 -0.33184594E-02 -0.34538899E-02
 -0.49880627E-02  0.53346476E-02 -0.52886940E-02
  0.52176621E-02  0.55722132E-02  0.70778468E-02
  0.36132783E-02  0.10917878E-02  0.29786213E-02
  0.45642973E-02  0.17638639E-02 -0.99546188E-02
 -0.11185894E-02  0.12051866E-02 -0.95922864E-03
 -0.42605915E-02  0.63796360E-02 -0.59198201E-02
  0.49988446E-02  0.10620606E-01 -0.10488994E-02
 -0.63407589E-02  0.12308583E-02 -0.44588920E-02
  0.24776042E-02  0.30889738E-02 -0.36949684E-02
 -0.27116537E-02  0.10738069E-01 -0.26377916E-02
  0.60671974E-02  0.44827476E-02  0.24728760E-02
 -0.14958199E-02 -0.17603393E-02  0.14872033E-02
 -0.59782043E-02 -0.58065901E-02 -0.40314547E-02
  0.37051307E-02  0.71787541E-02 -0.54895860E-03
 -0.37692857E-02 -0.87122588E-02 -0.65588756E-02
  0.44395804E-03  0.23752698E-02  0.36755230E-02
 -0.17773028E-03  0.13944950E-02  0.61193632E-03
 -0.69064155E-02  0.15312729E-02  0.25417641E-03
 -0.19569019E-02 -0.87646943E-03 -0.47347618E-02
  0.26772137E-02  0.28347320E-02 -0.89252884E-03
 -0.46583382E-02  0.20040344E-02 -0.36663494E-02
  0.14861515E-02 -0.45853400E-02  0.47581439E-02
  0.21083444E-02  0.57581204E-02 -0.16427963E-03
  0.24657431E-02  0.96475312E-02 -0.11928274E-02
 -0.66165097E-03 -0.38393253E-02  0.20122380E-02
  0.19208264E-02 -0.64059247E-03 -0.27424784E-02
 -0.18033015E-02  0.32673074E-02  0.21989343E-02
 -0.87931636E-03 -0.85160701E-03 -0.28158077E-03
 -0.39425891E-02 -0.41453289E-02  0.64784815E-03
  0.39992982E-02  0.15083521E-03  0.11852312E-02
 -0.19052996E-03 -0.20794404E-02 -0.44237118E-02
  0.32775778E-02  0.10752699E-02  0.46581871E-02
 -0.53155735E-02 -0.57332802E-02 -0.34363963E-02
  0.24781987E-02 -0.16638498E-02 -0.10080560E-02
 -0.44485543E-02  0.42913191E-02 -0.19348543E-02
  0.47047238E-02  0.34178923E-02 -0.66164001E-02
  0.33030164E-02 -0.94046274E-03 -0.48567376E-02
  0.23753317E-02  0.28544778E-02  0.18502027E-02
 -0.75502587E-02  0.29503295E-02  0.28234229E-02
  0.27274965E-02 -0.41482554E-02  0.57224482E-03
 -0.31578480E-02 -0.37970932E-02  0.18106696E-02
 -0.55747338E-03  0.25944714E-02  0.18247561E-02
  0.13972077E-03  0.24414547E-02 -0.44549674E-02
 -0.45865948E-02 -0.28044545E-02 -0.38108825E-03
  0.54019402E-03  0.26719715E-02  0.78538440E-03
  0.23933428E-02  0.67708326E-02  0.96262500E-03
  0.76483734E-03 -0.37273303E-02  0.30604985E-02
 -0.13499919E-02 -0.20065356E-02  0.16681908E-02
  0.25278373E-02 -0.19318468E-02  0.16045056E-02
 -0.25051866E-03  0.18237800E-02  0.18614156E-02
 -0.65380785E-03 -0.96730590E-02  0.13048071E-02
 -0.60141911E-02 -0.31098317E-02  0.40383898E-02
  0.23209147E-02  0.25034235E-02  0.29750778E-02
  0.13451790E-02 -0.23099491E-02 -0.43504530E-02
 -0.82023005E-03 -0.42607279E-02  0.37606242E-02
 -0.77654642E-03 -0.66552837E-03  0.25645246E-02
 -0.16438654E-02 -0.25650173E-02 -0.66904006E-03
  0.40473408E-02  0.15914948E-02  0.57039473E-02
 -0.72422243E-03 -0.42315038E-02 -0.54525667E-03
 -0.38622813E-02  0.24141691E-02  0.44453699E-02
 -0.29903190E-02  0.19163600E-03  0.11093785E-03
 -0.12361601E-02 -0.17317168E-02  0.29751042E-02
 -0.76690757E-03  0.79430791E-03  0.43431865E-02
 -0.44811456E-02  0.68644364E-02  0.47578306E-02
 -0.50696732E-03 -0.29101064E-02  0.97265335E-03
 -0.77958686E-03  0.26392646E-02 -0.52104854E-02
  0.47230695E-02  0.71346846E-02  0.97236963E-03
 -0.13365228E-02 -0.30250063E-02 -0.28049416E-02
 -0.59630021E-03 -0.21722870E-02 -0.16036553E-02
  0.35870901E-02  0.22193047E-02  0.44897635E-02
 -0.39977022E-02 -0.17671034E-02 -0.24512620E-02
  0.40222363E-02 -0.30747691E-03  0.73810047E-02
 -0.31641137E-02  0.18457536E-02  0.21613340E-02
 -0.43999516E-02  0.71114587E-02 -0.14756831E-02
  0.64702841E-03  0.95791096E-03 -0.61558838E-02
  0.75109699E-02 -0.21733428E-02 -0.24359924E-02
  0.44939060E-02 -0.14984394E-02 -0.52494612E-02
  0.44195180E-02  0.36415586E-02  0.27389690E-02
  0.49150852E-02 -0.38914763E-02  0.80694038E-03
  0.12672638E-02 -0.29454076E-02 -0.13652570E-02
 -0.54090653E-02 -0.26012872E-02 -0.20652838E-02
  0.32919838E-02 -0.39410332E-02  0.22460153E-02
 -0.18762168E-02  0.11203195E-02  0.37025966E-02
 -0.41257227E-03 -0.54005074E-02  0.85486069E-03
 -0.55824045E-02  0.73915461E-03 -0.29825823E-02
  0.16842453E-02  0.32261754E-02 -0.95594308E-03
  0.62746717E-02 -0.27702655E-02  0.21280667E-02
 -0.31933264E-02 -0.25436567E-02  0.12391854E-02
  0.49105596E-02  0.66455672E-03  0.23132764E-02
 
           1
   2.00000000000000     
  0.10000000E+01  0.00000000E+00  0.00000000E+00  0.00000000E+00
  0.62807342E+00  0.61433606E+00  0.13174216E+00
  0.85691329E+00  0.87494988E+00  0.38889247E+00
  0.38543981E+00  0.14515727E+00  0.64001099E+00
  0.98727445E+00  0.47521681E+00  0.25773174E+00
  0.99783723E+00  0.25196868E+00  0.37744069E-02
  0.99986614E+00  0.53452079E-02  0.99022059E+00
  0.97998502E+00  0.75676079E+00  0.73714767E+00
  0.62270580E+00  0.34957263E+00  0.14351249E+00
  0.16743501E-01  0.25234134E+00  0.25010184E+00
  0.35588012E+00  0.38750992E+00  0.37473306E+00
  0.98700618E+00  0.99281176E+00  0.27883946E+00
  0.39919232E+00  0.12500112E+00  0.38564206E+00
  0.37489114E+00  0.87417813E+00  0.87687904E+00
  0.50556579E+00  0.73207199E+00  0.48809405E+00
  0.48053262E+00  0.52175700E+00  0.98481575E+00
  0.61248223E+00  0.88567104E+00  0.61980355E+00
  0.73815268E+00  0.51964718E+00  0.96882374E+00
  0.87288073E+00  0.64215300E+00  0.62550782E+00
  0.22978799E+00  0.75184300E+00  0.50824670E+00
  0.63462008E+00  0.40791463E+00  0.62623150E+00
  0.39055962E+00  0.88094679E+00  0.12395052E+00
  0.86531161E+00  0.12320930E+00  0.12804982E+00
  0.60032902E+00  0.10768585E+00  0.39832283E+00
  0.48711220E+00  0.49917591E+00  0.48667683E+00
  0.49927374E+00  0.98682059E+00  0.23351624E+00
  0.74267778E+00  0.51154588E+00  0.73961888E+00
  0.75090603E-03  0.48257990E+00  0.99579628E+00
  0.61102255E+00  0.60530195E+00  0.36058951E+00
  0.62186447E+00  0.63879199E+00  0.87018761E+00
  0.24043559E+00  0.75318702E+00  0.25227818E+00
  0.73309251E+00  0.74891581E+00  0.48658396E+00
  0.48767170E+00  0.29036584E+00  0.74015618E+00
  0.97789422E+00  0.18227862E-01  0.48503073E+00
  0.11863641E+00  0.38126867E+00  0.85518794E+00
  0.50364366E+00  0.75177723E+00  0.13805311E-02
  0.98522174E+00  0.73440160E+00  0.26268397E+00
  0.38546212E+00  0.14465430E+00  0.11187827E+00
  0.62800295E+00  0.37760742E+00  0.87543375E+00
  0.73933989E+00  0.23679249E+00  0.60171227E-02
  0.87684504E+00  0.88183087E+00  0.12582430E+00
  0.35870891E+00  0.87270819E+00  0.61166459E+00
  0.10324178E+00  0.60183129E+00  0.14453804E+00
  0.37740001E+00  0.13411503E+00  0.87492363E+00
  0.86712644E+00  0.59019944E+00  0.36069758E+00
  0.88339970E+00  0.11760649E+00  0.89072736E+00
  0.74552308E+00  0.24303850E+00  0.25312002E+00
  0.25054495E+00  0.24726724E+00  0.98450878E+00
  0.37258860E+00  0.63180338E+00  0.38214962E+00
  0.86656822E+00  0.35971115E+00  0.11654008E+00
  0.72074224E+00  0.98768634E+00  0.51105297E+00
  0.62696598E+00  0.62223739E+00  0.59520405E+00
  0.12665950E+00  0.63109086E+00  0.88195690E+00
  0.76901543E+00  0.74638490E+00  0.73773576E+00
  0.13091185E+00  0.85951789E+00  0.12995699E+00
  0.35491585E+00  0.86667890E+00  0.37181095E+00
  0.25024571E+00  0.98574194E+00  0.23233371E+00
  0.24356860E+00  0.75842558E+00  0.75077405E+00
  0.64893798E+00  0.37570733E+00  0.38062268E+00
  0.13962603E+00  0.37927307E+00  0.37109058E+00
  0.72409869E+00  0.22547160E+00  0.52255104E+00
  0.24317713E+00  0.50508108E+00  0.75774234E+00
  0.96074761E-04  0.25714915E+00  0.49404097E+00
  0.74113863E+00  0.98463190E+00  0.26171563E+00
  0.50557689E+00  0.74822545E+00  0.74893790E+00
  0.76271235E+00  0.51894895E+00  0.49608270E+00
  0.10755312E+00  0.12449888E+00  0.15449499E+00
  0.13259728E+00  0.62869720E+00  0.63304896E+00
  0.48273212E+00  0.50991015E+00  0.25534233E+00
  0.50277411E+00  0.99084437E+00  0.73115998E+00
  0.74886732E+00  0.22697058E+00  0.73808105E+00
  0.37107734E+00  0.64371379E+00  0.62254433E+00
  0.24589705E+00  0.77276084E+00  0.99764449E+00
  0.10631084E+00  0.12639045E+00  0.88230199E+00
  0.11567873E+00  0.61509652E+00  0.38161991E+00
  0.10399049E-02  0.75523548E+00  0.98555401E+00
  0.26221891E+00  0.16599066E-02  0.99581333E+00
  0.24819380E+00  0.49586922E+00  0.26079846E+00
  0.25596906E+00  0.49664077E+00  0.18065613E-01
  0.61674196E+00  0.11008373E+00  0.88701790E+00
  0.13311384E+00  0.37968109E+00  0.61738671E+00
  0.99400432E+00  0.49850369E+00  0.51234109E+00
  0.26159706E+00  0.24075980E+00  0.25454763E+00
  0.75795947E+00  0.50802699E+00  0.24461703E+00
  0.50144551E+00  0.25507113E+00  0.27363952E+00
  0.61449751E+00  0.12766063E+00  0.62803470E+00
  0.99994426E+00  0.26061523E+00  0.75686076E+00
  0.24919931E+00  0.25194272E+00  0.75115778E+00
  0.63664372E+00  0.86054085E+00  0.11444648E+00
  0.12024712E+00  0.86288301E+00  0.39498169E+00
  0.36704769E+00  0.37110436E+00  0.12923629E+00
  0.73555877E+00  0.75152617E+00  0.25367098E+00
  0.98741218E+00  0.73604657E+00  0.50372268E+00
  0.11154152E+00  0.37134368E+00  0.11613075E+00
  0.48357647E+00  0.98735101E+00  0.50356585E+00
  0.37206979E+00  0.62914927E+00  0.87783561E+00
  0.25542037E+00  0.41200320E-02  0.75792040E+00
  0.75291881E+00  0.99106194E+00  0.99623488E+00
  0.36483231E+00  0.39404507E+00  0.63752619E+00
  0.62460962E+00  0.88580453E+00  0.85596113E+00
  0.86141601E+00  0.87975952E+00  0.63200145E+00
  0.97650501E+00  0.47195648E+00  0.75878346E+00
  0.86487977E+00  0.12692583E+00  0.36815190E+00
  0.39922248E+00  0.63286544E+00  0.12916489E+00
  0.88342138E+00  0.87053005E+00  0.87309389E+00
  0.26560520E+00  0.25591010E+00  0.48426929E+00
  0.10958070E+00  0.86625989E+00  0.86700251E+00
  0.11469033E+00  0.88356480E+00  0.63223817E+00
  0.23712002E+00  0.49953334E+00  0.50161311E+00
  0.12242014E+00  0.13408953E+00  0.63847128E+00
  0.63609551E+00  0.10608258E+00  0.15037249E+00
  0.86963888E+00  0.61782138E+00  0.89264465E+00
  0.50572100E+00  0.26879396E+00  0.52023213E+00
  0.50200488E+00  0.99437410E+00  0.55120294E-02
  0.86897521E+00  0.13144528E+00  0.62556757E+00
  0.24923598E+00  0.99989819E+00  0.49479385E+00
  0.37891584E+00  0.40446724E+00  0.85553946E+00
  0.87280535E+00  0.63959427E+00  0.10655171E+00
  0.85704578E+00  0.35931672E+00  0.35478741E+00
  0.75355573E+00  0.98619531E+00  0.74962467E+00
  0.60584820E+00  0.86938986E+00  0.36463708E+00
  0.50429474E+00  0.73286566E+00  0.25397223E+00
  0.87029519E+00  0.36867856E+00  0.87606646E+00
  0.87697090E+00  0.37276778E+00  0.62289025E+00
  0.55222921E-02  0.74672295E-02  0.75568870E+00
  0.77023994E+00  0.74985122E+00  0.98000664E+00
  0.12615532E+00  0.10711316E+00  0.38316138E+00
  0.50382860E+00  0.51723247E+00  0.74510863E+00
  0.50771556E+00  0.29072030E+00  0.16034436E-02
 -0.54253847E-03 -0.12392401E-02 -0.15804102E-03
 -0.62079861E-03 -0.40730188E-03  0.14133274E-02
 -0.69933028E-04 -0.63656742E-03 -0.47291111E-03
  0.50624391E-03  0.18515165E-02 -0.69635649E-03
 -0.14785364E-02  0.50801492E-03 -0.19867626E-03
 -0.52772697E-03 -0.25076047E-03 -0.32003734E-03
 -0.45979015E-04 -0.72397588E-05 -0.47205517E-03
  0.85487082E-03 -0.11303691E-03  0.17366061E-03
  0.45137166E-03 -0.55044712E-03  0.68554406E-03
 -0.16281858E-03  0.81035998E-03  0.15113963E-02
 -0.70865802E-03 -0.30031411E-03 -0.13590146E-03
  0.84104424E-03  0.93857048E-03  0.11405928E-02
 -0.14084836E-03  0.72673479E-03 -0.11187096E-02
  0.85003413E-03 -0.47502470E-03  0.20886548E-03
 -0.29646622E-03  0.45530003E-03 -0.71422145E-03
 -0.51672498E-03  0.16004728E-03  0.13491322E-03
  0.83597042E-03 -0.14293621E-02 -0.95804911E-03
  0.82419766E-03 -0.10389325E-02  0.75010252E-04
 -0.92503048E-03 -0.32986587E-03 -0.95635363E-03
  0.21767885E-03  0.23120564E-03 -0.98474682E-03
  0.49186894E-03 -0.16363950E-02  0.83023489E-03
 -0.37714361E-03  0.36022624E-03 -0.22920889E-04
 -0.52588339E-03 -0.18483677E-02 -0.52401015E-03
 -0.48332645E-03 -0.86705747E-03  0.91129997E-04
  0.81176421E-03 -0.27149233E-03  0.46152541E-03
 -0.36008810E-03 -0.21508883E-03 -0.11183021E-04
  0.50572132E-03  0.42074363E-03  0.39143245E-05
 -0.63631345E-03  0.48987497E-03  0.75324125E-03
 -0.17054207E-03 -0.63808689E-03 -0.14653371E-02
  0.49876842E-03  0.27350457E-03  0.44807568E-03
 -0.10115072E-02 -0.76355322E-03 -0.28722386E-03
  0.38944467E-04  0.77747280E-03  0.70541964E-03
  0.91942169E-04  0.10776379E-02  0.10396270E-03
  0.77990682E-03  0.50822671E-03 -0.96649318E-03
 -0.19954648E-03  0.77036721E-03 -0.15412814E-03
  0.83689544E-03 -0.37270559E-03 -0.14640049E-03
  0.61867197E-04 -0.25316715E-03 -0.38860460E-03
  0.42894947E-03  0.16218582E-02 -0.43071173E-03
  0.54749543E-04 -0.51809598E-03 -0.52081890E-03
 -0.76566874E-03  0.82176153E-03 -0.79566052E-03
  0.78328551E-03  0.84749063E-03  0.10577032E-02
  0.53788984E-03  0.13820113E-03  0.47442571E-03
  0.67087201E-03  0.27107335E-03 -0.15136393E-02
 -0.22252866E-03  0.91518725E-04 -0.17520206E-03
 -0.61293309E-03  0.96201443E-03 -0.87733115E-03
  0.76117932E-03  0.16473811E-02 -0.16423800E-03
 -0.95579011E-03  0.16411661E-03 -0.70355855E-03
  0.40658069E-03  0.48215271E-03 -0.55535774E-03
 -0.42272195E-03  0.16189586E-02 -0.39694092E-03
  0.87640014E-03  0.66500800E-03  0.40608482E-03
 -0.20429425E-03 -0.29773727E-03  0.18200520E-03
 -0.89741948E-03 -0.86366655E-03 -0.60773726E-03
  0.63770458E-03  0.10737588E-02 -0.10546140E-03
 -0.53836062E-03 -0.13520520E-02 -0.99684609E-03
  0.43880469E-04  0.36098501E-03  0.56512137E-03
 -0.33862135E-04  0.18129755E-03  0.56027456E-04
 -0.10554225E-02  0.23099562E-03  0.29270009E-04
 -0.25245829E-03 -0.13779798E-03 -0.73547386E-03
  0.46189567E-03  0.46923152E-03 -0.15305423E-03
 -0.75693261E-03  0.25820561E-03 -0.50591348E-03
  0.21665641E-03 -0.71667054E-03  0.74505969E-03
  0.32328461E-03  0.88956649E-03 -0.28616888E-04
  0.36117794E-03  0.14491887E-02 -0.17557839E-03
 -0.96316922E-04 -0.59924328E-03  0.32145457E-03
  0.30235329E-03 -0.66920121E-04 -0.42436690E-03
 -0.28293393E-03  0.50405579E-03  0.35723878E-03
 -0.11548464E-03 -0.12819522E-03 -0.40321924E-04
 -0.61817086E-03 -0.60708862E-03  0.10739214E-03
  0.62381182E-03  0.86520129E-05  0.15619567E-03
 -0.32836214E-04 -0.33861132E-03 -0.69972264E-03
  0.49856432E-03  0.18231200E-03  0.70955329E-03
 -0.81992985E-03 -0.85505378E-03 -0.52779393E-03
  0.35065451E-03 -0.25315367E-03 -0.15298557E-03
 -0.67973595E-03  0.64682601E-03 -0.29617726E-03
  0.71443020E-03  0.52967226E-03 -0.10289868E-02
  0.51349145E-03 -0.14213500E-03 -0.74076381E-03
  0.36253947E-03  0.42426237E-03  0.30002614E-03
 -0.11407198E-02  0.43958545E-03  0.44555685E-03
  0.41246067E-03 -0.64197566E-03  0.90585764E-04
 -0.47365232E-03 -0.56696454E-03  0.27013655E-03
 -0.83138131E-04  0.40052582E-03  0.28284637E-03
  0.29583435E-04  0.37466706E-03 -0.68078366E-03
 -0.66988825E-03 -0.40550900E-03 -0.28267762E-04
  0.82757886E-04  0.41135235E-03  0.12985271E-03
  0.37866432E-03  0.10446949E-02  0.13249410E-03
  0.12912220E-03 -0.54466286E-03  0.48577137E-03
 -0.20563206E-03 -0.30699678E-03  0.26129403E-03
  0.39327157E-03 -0.30843398E-03  0.24200500E-03
 -0.31227444E-04  0.27033043E-03  0.29592721E-03
 -0.10708247E-03 -0.14800796E-02  0.20009075E-03
 -0.93025588E-03 -0.46149467E-03  0.61940049E-03
  0.35545196E-03  0.36695923E-03  0.45451382E-03
  0.18956539E-03 -0.34499387E-03 -0.67257162E-03
 -0.12922138E-03 -0.65522613E-03  0.57773812E-03
 -0.11765326E-03 -0.11241613E-03  0.39340677E-03
 -0.24264904E-03 -0.39064868E-03 -0.95133485E-04
  0.61814809E-03  0.24091352E-03  0.86307555E-03
 -0.11865898E-03 -0.64150015E-03 -0.59788049E-04
 -0.59433389E-03  0.38276878E-03  0.65531853E-03
 -0.47054812E-03  0.25482826E-04  0.31983124E-04
 -0.19455092E-03 -0.29653914E-03  0.46662370E-03
 -0.11834283E-03  0.11940078E-03  0.65459261E-03
 -0.64774840E-03  0.10468669E-02  0.72497135E-03
 -0.65715410E-04 -0.45710359E-03  0.15109962E-03
 -0.10900019E-03  0.41044156E-03 -0.81426630E-03
  0.70313822E-03  0.10647663E-02  0.14484946E-03
 -0.20532544E-03 -0.46165553E-03 -0.42049514E-03
 -0.10952621E-03 -0.34129787E-03 -0.24512402E-03
  0.54328027E-03  0.34451308E-03  0.69782308E-03
 -0.59001030E-03 -0.27565663E-03 -0.35193711E-03
  0.60012644E-03 -0.45513443E-04  0.11551854E-02
 -0.47073100E-03  0.28066061E-03  0.34024004E-03
 -0.67413222E-03  0.10808392E-02 -0.21664600E-03
  0.88464346E-04  0.16364629E-03 -0.94178102E-03
  0.11541430E-02 -0.34079149E-03 -0.38145455E-03
  0.68693228E-03 -0.20808302E-03 -0.82230148E-03
  0.67050033E-03  0.56788535E-03  0.40209801E-03
  0.73046818E-03 -0.59509067E-03  0.10592391E-03
  0.19420715E-03 -0.46523900E-03 -0.20907228E-03
 -0.82322823E-03 -0.39079550E-03 -0.32313378E-03
  0.50269473E-03 -0.62176130E-03  0.35258643E-03
 -0.27807731E-03  0.17057430E-03  0.55861224E-03
 -0.53568016E-04 -0.82420409E-03  0.12784510E-03
 -0.83747953E-03  0.11797247E-03 -0.43703139E-03
  0.28393173E-03  0.48167650E-03 -0.16119907E-03
  0.94772011E-03 -0.43943466E-03  0.33163808E-03
 -0.48317797E-03 -0.39058011E-03  0.19126420E-03
  0.75879496E-03  0.12321713E-03  0.35205914E-03
  0.00000000E+00  0.00000000E+00  0.00000000E+00
  0.00000000E+00  0.00000000E+00  0.00000000E+00
  0.00000000E+00  0.00000000E+00  0.00000000E+00
  0.00000000E+00  0.00000000E+00  0.00000000E+00
  0.00000000E+00  0.00000000E+00  0.00000000E+00
  0.00000000E+00  0.00000000E+00  0.00000000E+00
  0.00000000E+00  0.00000000E+00  0.00000000E+00
  0.00000000E+00  0.00000000E+00  0.00000000E+00
  0.00000000E+00  0.00000000E+00  0.00000000E+00
  0.00000000E+00  0.00000000E+00  0.00000000E+00
  0.00000000E+00  0.00000000E+00  0.00000000E+00
  0.00000000E+00  0.00000000E+00  0.00000000E+00
  0.00000000E+00  0.00000000E+00  0.00000000E+00
  0.00000000E+00  0.00000000E+00  0.00000000E+00
  0.00000000E+00  0.00000000E+00  0.00000000E+00
  0.00000000E+00  0.00000000E+00  0.00000000E+00
  0.00000000E+00  0.00000000E+00  0.00000000E+00
  0.00000000E+00  0.00000000E+00  0.00000000E+00
  0.00000000E+00  0.00000000E+00  0.00000000E+00
  0.00000000E+00  0.00000000E+00  0.00000000E+00
  0.00000000E+00  0.00000000E+00  0.00000000E+00
  0.00000000E+00  0.00000000E+00  0.00000000E+00
  0.00000000E+00  0.00000000E+00  0.00000000E+00
  0.00000000E+00  0.00000000E+00  0.00000000E+00
  0.00000000E+00  0.00000000E+00  0.00000000E+00
  0.00000000E+00  0.00000000E+00  0.00000000E+00
  0.00000000E+00  0.00000000E+00  0.00000000E+00
  0.00000000E+00  0.00000000E+00  0.00000000E+00
  0.00000000E+00  0.00000000E+00  0.00000000E+00
  0.00000000E+00  0.00000000E+00  0.00000000E+00
  0.00000000E+00  0.00000000E+00  0.00000000E+00
  0.00000000E+00  0.00000000E+00  0.00000000E+00
  0.00000000E+00  0.00000000E+00  0.00000000E+00
  0.00000000E+00  0.00000000E+00  0.00000000E+00
  0.00000000E+00  0.00000000E+00  0.00000000E+00
  0.00000000E+00  0.00000000E+00  0.00000000E+00
  0.00000000E+00  0.00000000E+00  0.00000000E+00
  0.00000000E+00  0.00000000E+00  0.00000000E+00
  0.00000000E+00  0.00000000E+00  0.00000000E+00
  0.00000000E+00  0.00000000E+00  0.00000000E+00
  0.00000000E+00  0.00000000E+00  0.00000000E+00
  0.00000000E+00  0.00000000E+00  0.00000000E+00
  0.00000000E+00  0.00000000E+00  0.00000000E+00
  0.00000000E+00  0.00000000E+00  0.00000000E+00
  0.00000000E+00  0.00000000E+00  0.00000000E+00
  0.00000000E+00  0.00000000E+00  0.00000000E+00
  0.00000000E+00  0.00000000E+00  0.00000000E+00
  0.00000000E+00  0.00000000E+00  0.00000000E+00
  0.00000000E+00  0.00000000E+00  0.00000000E+00
  0.00000000E+00  0.00000000E+00  0.00000000E+00
  0.00000000E+00  0.00000000E+00  0.00000000E+00
  0.00000000E+00  0.00000000E+00  0.00000000E+00
  0.00000000E+00  0.00000000E+00  0.00000000E+00
  0.00000000E+00  0.00000000E+00  0.00000000E+00
  0.00000000E+00  0.00000000E+00  0.00000000E+00
  0.00000000E+00  0.00000000E+00  0.00000000E+00
  0.00000000E+00  0.00000000E+00  0.00000000E+00
  0.00000000E+00  0.00000000E+00  0.00000000E+00
  0.00000000E+00  0.00000000E+00  0.00000000E+00
  0.00000000E+00  0.00000000E+00  0.00000000E+00