XYZ.5x5x5: Li250                        
   1.00000000000000     
    17.4309000000000012    0.0000000000000000    0.0000000000000000
     0.0000000000000000   17.4309000000000012    0.0000000000000000
     0.0000000000000000    0.0000000000000000   17.4309000000000012
   Li
   250
Direct
  0.9956666426235702  0.0042167833885196  0.0028712377007820
  0.0909719154497352  0.1222986533735918  0.1104301381607254
  0.0074656469015738  0.9897716047100146  0.1931371984843430
  0.0818712066807760  0.0933119977572832  0.2926681624893561
  0.9772963541887512  0.9862039261487626  0.4047481508962230
  0.0870635233742343  0.0949654437782252  0.5182681656748859
  0.9817594885864832  0.9892627595246151  0.5996809413985392
  0.0861277972482791  0.0929121365862327  0.7039486252666378
  0.9751286295603885  0.9977275844189412  0.7972980605542315
  0.0965199143154794  0.1021587634022469  0.8895528777666197
  0.9969638810100417  0.2029919841093078  0.0039917062033342
  0.1035721129239730  0.3123594368414223  0.0975272062682351
  0.9981175788080930  0.2073924895109856  0.2083053374644742
  0.1063348465196228  0.2918251729219753  0.2877527279380057
  0.9752807493661596  0.1765270812780345  0.4125106031841314
  0.1016476124904360  0.2861739021755934  0.4808154543294010
  0.9801910492413195  0.2102545016516344  0.5934292942092350
  0.0936048675984240  0.2795116575153192  0.6983064728090191
  0.0014873761467340  0.2026294867997684  0.7989275248071951
  0.1099410859941276  0.2790128649192470  0.8780124416855487
  0.0326614338109719  0.3746483328867506  0.9813081252129837
  0.1114764331863808  0.4778211432589170  0.0986903025510807
  0.0126100635032995  0.3929761940774520  0.1894309731348352
  0.1022350695200681  0.4788264602869110  0.2999147899571655
  0.9869928649870594  0.3717273704355942  0.3855046292755708
  0.0876321958608506  0.4659139110307672  0.4814945135229551
  0.0128225642655500  0.4002687675276159  0.5929048359271836
  0.1106414170244103  0.5312453490292182  0.6934449208150827
  0.0034253428803734  0.4199443244427208  0.7983868324208985
  0.1102277324879974  0.5009970680386558  0.8980391770235044
  0.0152962731791039  0.6039230207353790  0.0000131065887816
  0.1085487718467909  0.7032624242523514  0.1051550057725314
  0.0116002949512687  0.5967968083757695  0.2161090162646227
  0.1018214811169300  0.7062764760729843  0.2978151924488827
  0.9899529771685885  0.5954479231415974  0.4140516072700844
  0.1034880774158320  0.7135355206855385  0.4873654215711741
  0.9838804267456678  0.5841281982513986  0.5836148236854438
  0.0919641091609663  0.7008008261497836  0.6884909367389207
  0.0062742752612691  0.6060961249856708  0.8007191201392363
  0.1110898036193693  0.7208492039243632  0.9067260273393316
  0.0272231062973230  0.7970491810762812  0.0116363005118957
  0.1186484922510924  0.8849439782779099  0.1119753762277589
  0.0046846168226824  0.8110429511092472  0.1772907399777588
  0.0856909495687044  0.9050554955504025  0.2926013364429286
  0.9885679034075193  0.7881272216673018  0.4028303131149358
  0.0922837007556591  0.9067960128982490  0.5285873872671467
  0.9978323283923417  0.7879982447350702  0.5786934071915564
  0.1007141600591503  0.9197368610239860  0.7173425093510318
  0.0039620099166854  0.7974802827114897  0.7950929634848809
  0.0854717158529150  0.9111959089605992  0.8943912385256844
  0.1724665041142468  0.0002387111913709  0.0099305528163766
  0.2899935330721932  0.1230617820271686  0.0946492950292527
  0.2004032462904487  0.0003234696131069  0.2012297143024256
  0.3071140939478608  0.0849453547826722  0.3045512527747632
  0.1808073292553383  0.0126835472717052  0.4066747874922019
  0.2892548446726138  0.0872253630795245  0.4832604892165939
  0.2030444035599094  0.9997361516543068  0.5830490593029415
  0.2974970285568264  0.0987061240230527  0.6885763938554922
  0.1960406155418488  0.0084516819461418  0.7999819581891223
  0.3015829611797484  0.0990464513317165  0.8923501579118845
  0.1817393938168279  0.2219151567555716  0.9955275942692247
  0.2756582639723472  0.2960337266120820  0.0985261433961065
  0.2141989542898982  0.1865821333120984  0.2151846262855105
  0.2969798242813450  0.2993472364399842  0.3001390008969059
  0.1968405263856597  0.1851317480174741  0.4012410337070244
  0.3053178285555737  0.3001928543114816  0.4968886368444521
  0.1947149999355951  0.1892555213335987  0.5875861610964128
  0.2939006667681152  0.2952431572307953  0.6954118207637692
  0.2005703322822299  0.2063384042919563  0.7880545950213204
  0.2999379069102248  0.2816111290919541  0.8972754160551861
  0.2137068586502058  0.4102482519988731  0.9786042683980631
  0.3223780974225821  0.5102336604404951  0.1190792687380686
  0.2143802529039192  0.4108457921146453  0.2087851295864428
  0.3111527472778523  0.5132212126358159  0.3139459311327012
  0.2134527168984993  0.4145052224324825  0.4017298116157106
  0.3053987026374130  0.4973222953025294  0.5020142698951210
  0.1870228222458295  0.3952637305015187  0.5896206200082745
  0.3039019373477510  0.5000338204594627  0.6935366709080047
  0.1875650143397729  0.4031746120457602  0.7882911498701741
  0.3020269814866768  0.5120522239086868  0.8972689130484224
  0.2039791853993018  0.6034516037582340  0.0103883463418456
  0.2828571157280682  0.6990540450439889  0.0985520974569873
  0.2018904308760614  0.5900419236788161  0.2108202170852281
  0.2933298871119069  0.7065989443187265  0.3116789021891777
  0.1966609687070244  0.5838646224560898  0.4192338830358814
  0.2964416667151979  0.7163040523843356  0.5226889192457814
  0.1922361197049922  0.5871936623659008  0.5862491423303771
  0.2942138263967897  0.6734159225549466  0.7038669268998219
  0.1897452240834561  0.6022474259456356  0.8045593558218359
  0.2899511754169600  0.7080891091073495  0.9057243258367633
  0.2100695830316959  0.8106403166333145  0.0042768856134642
  0.2993724393719892  0.9297100166680076  0.0993178609702384
  0.2104364583586981  0.8147236778108249  0.1985405450007190
  0.3018923373894407  0.9085494221958111  0.3185433347252768
  0.1760877412300948  0.8093394327728359  0.4210540986340223
  0.2943870912073754  0.9035193945868871  0.4945765171712578
  0.2094327706302173  0.8049114302049891  0.6127500527061064
  0.2986416259307415  0.9020255329813107  0.7171432626165484
  0.2098513118262092  0.8062439823297478  0.7960717169815568
  0.2913395378939018  0.9125252984076841  0.8882607868793210
  0.3932032465915167  0.0191429183896827  0.9822383312281033
  0.4961814883245949  0.0761236998858007  0.0952579665778546
  0.4008781874917066  0.9983984870736377  0.1972552073935999
  0.5147491898579181  0.0938919443847610  0.3070022660050782
  0.4100108069620304  0.0037227615650396  0.4048227118866988
  0.5070147113840463  0.0965388248361147  0.5073370989836160
  0.4091426143763358  0.9947215870560081  0.6106240883757875
  0.5040771600158876  0.1059834332167862  0.6986475560697508
  0.3989983558831779  0.0107570622474666  0.8022468988522524
  0.5026532212977498  0.0907754962917514  0.9041237052881055
  0.4104085700369809  0.1981100069857392  0.9922386270735755
  0.5096520854193103  0.3007923677681867  0.1184412873536114
  0.3920444927761016  0.1904921343806367  0.2101847629324005
  0.5079368993267087  0.2774370206880601  0.3186668559201905
  0.4096880625420768  0.1922788536738959  0.3914396785087423
  0.5305847825534642  0.3002018415969260  0.5051211090483179
  0.4156909574951514  0.1999337034173253  0.5989588221879744
  0.4871225263466476  0.2853120181143065  0.7038602063542260
  0.3989884070599110  0.1924393342143249  0.7944086143581038
  0.4850102580324245  0.3006610126090521  0.9149305104614156
  0.3947215404252679  0.3860880090751245  0.0161831210058008
  0.4980600384613552  0.4915805989163977  0.0927265564015049
  0.4027204953494263  0.3874758727866491  0.2266839565871042
  0.4920292436083290  0.5200106818394244  0.3056689809295650
  0.4234886131348660  0.3789322772333407  0.3948365589703639
  0.5147952303453557  0.4817675818612699  0.4877261269029658
  0.4213782976620836  0.4019306009295186  0.5969200296957677
  0.5081653917787229  0.5018812803302735  0.7082366332373284
  0.3902223008564011  0.3819006614615109  0.8040248022168107
  0.5023579240576875  0.4887664616266863  0.8867861110644020
  0.3954188667583285  0.6084123268140145  0.0010235434570679
  0.4873367000429344  0.7278932025858317  0.0951568897365273
  0.4244819197842732  0.6240883685352152  0.2027802018745657
  0.4829790416965251  0.7297025123341503  0.3056340770511638
  0.4014363360482489  0.5998003008918272  0.4025282601341814
  0.4933669180323429  0.6999685690975592  0.5121670349885606
  0.4011580645671255  0.5940868710087337  0.6029908421925980
  0.5135075306315160  0.6801229359494025  0.7075488310990447
  0.4031463164453900  0.6016583292550901  0.8096148947084791
  0.4912283115753445  0.6896380581698249  0.8854939816809085
  0.3768264670836293  0.8024868732410473  0.0108963644256080
  0.4904574219564672  0.9044160984573223  0.0942490691643803
  0.3842320472615272  0.8150030200539792  0.2027401230424355
  0.4739749320017286  0.9105477934055638  0.2938889618471813
  0.4110421450863336  0.8017562201540449  0.4258418096523705
  0.5156823787036707  0.8921064982597973  0.5173215517777873
  0.4075025029521268  0.8117712567030867  0.6163383419010264
  0.4938263319011361  0.8939374256666497  0.7286365604660787
  0.3846565615227341  0.7769504145077673  0.7928622126456675
  0.4998304058378261  0.8906609649103078  0.9083215301847481
  0.5923203557451500  0.9929522505077849  0.9652520256020831
  0.6844827739316056  0.1074763943243038  0.1094000377873246
  0.6084721357873106  0.9912328817244902  0.1896150649263008
  0.7181052495459997  0.0938952285382707  0.2893423052243695
  0.6056938896396084  0.0140271866613075  0.4023872162094122
  0.6934991883503662  0.0955470407458822  0.5136832910322734
  0.6041668762062095  0.9956105439898826  0.6250201759921860
  0.7080142166995997  0.1149007255379862  0.7246815333460428
  0.6036026640651643  0.9908007860539008  0.7934996952929982
  0.7007435156988757  0.1068408383751921  0.9106271498198699
  0.5914230870660616  0.2046295736517198  0.0078589874224478
  0.7128069050465989  0.3181976348053180  0.1009644945663609
  0.6144605975062479  0.2014534135150615  0.2133465975021135
  0.7067964689532075  0.3103948099098380  0.2836396379026329
  0.6201353112861230  0.2135059497439224  0.4008557519780297
  0.7164103408049253  0.3199907118738506  0.5000254968866339
  0.6203032418486321  0.2034629623846854  0.6097095005320393
  0.7023921243928319  0.2941220991772006  0.7079110508428481
  0.5952755139934132  0.1844544075795045  0.7997398191748797
  0.7027451489368158  0.2939284665294062  0.8908636877289301
  0.5994036993824819  0.3982061692728521  0.9969988621800220
  0.6840137729652525  0.5010585560766482  0.0926881468378895
  0.5910108318720424  0.4039237877501173  0.2020291177020222
  0.6919845032539942  0.5090982561295849  0.3108921090190618
  0.5990109947717593  0.4056693301648437  0.3637155331039376
  0.7125930339751528  0.4984268775362433  0.4881350590747295
  0.6164397885101152  0.4098910893638296  0.6090891556616146
  0.6993276976759150  0.5116330735334937  0.7336187710100779
  0.6027571046770377  0.3835129845119963  0.7911178137135898
  0.6899112427089192  0.4857700329036516  0.8988372294446574
  0.5814780394484543  0.5982194595488550  0.0171453043996817
  0.6987027918694890  0.7070193558324783  0.0942833799101136
  0.5824505716713849  0.6012703861991909  0.1893147488933906
  0.6860147956179309  0.7113131452527885  0.2774641130665960
  0.5742285572809022  0.6203438804707475  0.4011522542017337
  0.6863726239984473  0.6977677767604812  0.5036628324285314
  0.6095183414532639  0.5975661766633314  0.6038551465991636
  0.7158980025129322  0.6798392995325307  0.7079512575384351
  0.6035959382778563  0.5936270953052517  0.8159566482871324
  0.6913850979349043  0.6779128880130585  0.8965632681603727
  0.6092532988160603  0.8052832166894768  0.9961143897981583
  0.7045480233991286  0.9092948127342459  0.0818926303174475
  0.5798507603230116  0.8229834090968997  0.1932523075046059
  0.7075547681657658  0.9174125998559891  0.2900852285913082
  0.6090316943076988  0.8057378294772375  0.3767927121505495
  0.6956585019231896  0.9057898136466461  0.4694693936799413
  0.6078408641991745  0.8005272844591743  0.6153145470795438
  0.7104545228585017  0.8946661438106838  0.7244621136899632
  0.6022743232584791  0.7919987772585118  0.7973517696574038
  0.6902253332635079  0.9129095342038667  0.8891829782740421
  0.7985530478061199  0.9795976864644246  0.9918591499233985
  0.9032591611581391  0.1039096681167622  0.0957367623929388
  0.8037361386907368  0.0043261648213953  0.1646485796841457
  0.8884717544589189  0.0893518042129253  0.2861074211761353
  0.7964798742391017  0.9988843912446069  0.3988968612607333
  0.8798829810625118  0.0853835049813387  0.5158189946319358
  0.7893253819319428  0.9822654838595773  0.5980044608384267
  0.8801314519548701  0.0981482176204684  0.6886358606195588
  0.7988785019446254  0.9916437742504145  0.8222942815452859
  0.9099014133286669  0.1273246101532053  0.9093292325672540
  0.7964920329203039  0.2061888970966808  0.0149151445243053
  0.9004801409212948  0.3054523283698417  0.0967135126948181
  0.7987920292439324  0.2135948585214893  0.1892856466489425
  0.8796005454879264  0.2985354255543814  0.2936114443984358
  0.7938909994718960  0.1992304424888955  0.3864246739397102
  0.9034777317052515  0.3098958934534073  0.4934433577741910
  0.7915726459211787  0.2156307665284065  0.5853311408476470
  0.8899768839747810  0.3121618562692252  0.7062309248847396
  0.8120165287413958  0.2028928014062397  0.8045983250388979
  0.9012593099640441  0.3097144020212726  0.9115658636105751
  0.8027269546155027  0.4069608352612877  0.9998720604002227
  0.9220455053312567  0.4868658550985727  0.0979411992068592
  0.7989303465888877  0.4207152533374036  0.1808000803069967
  0.9093852645049492  0.4902119794781574  0.2786502145870810
  0.8130362728903587  0.4144938599782991  0.3848142150556508
  0.8811828136062173  0.4888570510105817  0.5096769635456309
  0.7994176227322123  0.4197935898488723  0.6278500749908031
  0.9067844960865098  0.5091517121646879  0.6995075300885325
  0.8144474962739146  0.4103727703084489  0.8230426119320911
  0.9297810332219333  0.5003610184862805  0.9202003599379657
  0.8066627892959786  0.6023403677007840  0.0003405473612311
  0.9032252108068359  0.7059432919308254  0.0946615453794584
  0.7803090952630970  0.6085463742969093  0.1853800015505227
  0.8979308905720915  0.7140706285902932  0.2751868950695253
  0.8263274880726926  0.6057203775848201  0.3706668684794860
  0.8819736639918383  0.6936136700388721  0.5023998497647936
  0.7915195410855209  0.5919521561921752  0.6019916195619696
  0.9166881046295478  0.6936558518045564  0.6849267929448926
  0.8276284646767068  0.5941051258035017  0.8195048700486621
  0.9214695947131680  0.6983221103408335  0.9076965701862242
  0.8071719991559073  0.7956930741834798  0.9836786560434151
  0.8997521743384582  0.8903620506031623  0.0863312145480875
  0.7836619525669676  0.8132749955577305  0.1985470942283001
  0.8941104968069346  0.8956117281055372  0.2903271536632889
  0.8020382011977648  0.7951208163976649  0.3859050973339428
  0.8828100083150774  0.8856926256870166  0.5018653509876559
  0.7894259494195436  0.7834345948780924  0.6110880982456200
  0.9167464495339176  0.8736255982416550  0.6874717657388465
  0.8179168169012794  0.7812351837267490  0.7931461620059304
  0.9114105758028275  0.8947687980115100  0.9235651203503875
 
 -0.10987708E-01 -0.14109714E-01 -0.48597827E-02
  0.23312634E-02  0.46022120E-02  0.75538564E-02
  0.41815908E-02 -0.23877993E-02 -0.20861334E-02
  0.29595401E-03  0.10502333E-02  0.10126784E-02
  0.58765596E-02 -0.97888363E-03 -0.63418699E-02
 -0.18138707E-01 -0.46999274E-02  0.11004950E-02
  0.74906061E-02  0.10302296E-01  0.10227247E-01
 -0.10388788E-01 -0.75357751E-02  0.38492127E-02
 -0.27484197E-02 -0.11962792E-01 -0.23086029E-02
 -0.18145386E-02 -0.30828356E-02  0.13046372E-01
  0.90108775E-04 -0.11362349E-01  0.70829877E-02
  0.34711073E-02  0.72914875E-02  0.95556554E-02
  0.19943478E-02 -0.10437341E-01 -0.10153893E-01
 -0.47991908E-02  0.65591657E-02  0.20563498E-02
  0.38783717E-02  0.83684738E-02  0.57806057E-03
  0.19144048E-02  0.32741601E-02  0.71992640E-02
 -0.47085588E-02 -0.12115028E-01  0.34816829E-02
  0.87706183E-02 -0.56026876E-03  0.65284038E-03
  0.27818517E-02  0.73772063E-03  0.67565592E-02
  0.23304474E-02 -0.32618294E-02  0.81399631E-02
  0.45690007E-03 -0.90632491E-02  0.52701376E-02
 -0.17119691E-02  0.33761736E-02 -0.58576100E-02
  0.67135350E-02 -0.10672924E-02 -0.33471873E-03
  0.12760572E-01  0.54638756E-02 -0.15222448E-01
  0.48592102E-03  0.58705183E-02 -0.65483678E-02
 -0.35831632E-02 -0.98195346E-02  0.17010996E-02
  0.62040245E-02 -0.58051637E-02  0.47186985E-02
  0.22538221E-02 -0.38605021E-02 -0.83420948E-02
 -0.50190412E-02 -0.42746806E-02 -0.53993951E-02
 -0.57463005E-02  0.97542204E-02 -0.12294236E-02
  0.50921758E-02 -0.25714734E-02  0.22393242E-02
 -0.89767883E-02 -0.33557967E-03 -0.66019670E-02
  0.72923399E-02  0.10737964E-02 -0.13232701E-02
  0.86664523E-02 -0.68900837E-03  0.54495595E-02
  0.54154930E-02  0.63047479E-02 -0.35592809E-02
 -0.11368774E-02  0.51011260E-02  0.36708258E-02
  0.53419095E-02  0.48213428E-03  0.14220735E-02
 -0.75845427E-02  0.38122681E-02 -0.42497023E-02
  0.10424582E-01 -0.25984407E-03 -0.67725105E-02
  0.75008731E-02  0.45968520E-02 -0.11896637E-01
  0.10711199E-01 -0.23819922E-02 -0.47042584E-02
 -0.17276578E-02  0.72186914E-03 -0.12468292E-02
 -0.56498838E-02  0.89989769E-02 -0.53761425E-03
  0.12883514E-01  0.11159680E-01  0.23224229E-02
  0.74059940E-02 -0.16863916E-02  0.89812518E-03
 -0.37877617E-02  0.33125649E-02 -0.59274161E-02
 -0.51762823E-02  0.31841526E-02 -0.59429386E-02
  0.94631733E-02 -0.34426710E-02 -0.30020149E-02
 -0.28837160E-02  0.83364427E-02 -0.14668550E-01
  0.10444322E-01  0.18387290E-02 -0.63737801E-02
  0.43316470E-02 -0.20756376E-02 -0.51553536E-02
 -0.23652894E-02  0.81767818E-02  0.55279582E-03
  0.12988950E-01 -0.81708677E-02 -0.64351923E-02
  0.46783073E-02 -0.20036186E-03 -0.44755905E-05
 -0.25435529E-02  0.23974199E-02 -0.17938189E-02
  0.46674142E-02 -0.14158901E-01 -0.85310729E-02
 -0.41434448E-02 -0.52966135E-03 -0.20891626E-02
 -0.42643351E-02 -0.14581814E-02 -0.62505862E-02
 -0.99814919E-02 -0.11931581E-02  0.61173806E-02
  0.17556656E-03  0.10548942E-01 -0.19964937E-02
 -0.27090870E-02 -0.72638050E-02  0.11864704E-01
  0.12049999E-02 -0.41099541E-02 -0.16972408E-02
 -0.16149714E-01  0.43500295E-02  0.47849726E-02
  0.13305570E-01  0.21440004E-02  0.27647020E-02
  0.60051663E-02 -0.96494257E-02 -0.93507302E-03
  0.88813332E-02  0.35476751E-02  0.57910516E-02
  0.86837039E-03  0.60949387E-03  0.40674829E-02
  0.56905609E-02  0.86252268E-04 -0.63694518E-02
 -0.10916173E-01 -0.28228376E-02 -0.69403228E-02
 -0.72294897E-02  0.16970468E-02 -0.90943621E-02
  0.16143655E-02 -0.11719451E-02 -0.59976892E-02
 -0.32826915E-02  0.47129049E-02  0.56849580E-02
  0.86119740E-03  0.15386526E-02 -0.58845872E-02
 -0.66750324E-02  0.26796880E-02  0.57961474E-02
  0.38823399E-03 -0.56476049E-02  0.10753515E-01
  0.34533530E-03  0.32613041E-04 -0.59390040E-03
 -0.32670872E-02  0.99885572E-02  0.41623719E-03
 -0.77017006E-02  0.74200397E-02 -0.54285687E-02
 -0.68085268E-02 -0.75399624E-02 -0.32865718E-02
  0.22769790E-02  0.13426341E-02 -0.29294287E-03
 -0.34194780E-02 -0.71276496E-02  0.63044427E-03
  0.86638818E-02 -0.29175842E-02 -0.11620130E-02
 -0.11899390E-01  0.35823762E-02 -0.41904096E-02
 -0.48200448E-03  0.13818922E-01 -0.58901744E-02
 -0.94253784E-04  0.11304576E-02  0.24457908E-02
 -0.83992470E-02 -0.13803054E-02  0.40073433E-03
 -0.27429000E-02  0.54772066E-02 -0.12459495E-03
 -0.55778485E-02 -0.14602343E-02 -0.86166384E-02
  0.11347305E-01 -0.46110022E-02  0.72713105E-02
 -0.54972870E-02  0.43937792E-02 -0.32385678E-02
  0.61382503E-02 -0.13702134E-01 -0.81318376E-03
  0.69775353E-03  0.76055187E-02 -0.89790495E-02
 -0.40789828E-02 -0.99399581E-03 -0.24953435E-02
 -0.11004530E-01 -0.62282355E-02  0.26655120E-02
  0.27679651E-02  0.41079470E-02 -0.58619085E-02
 -0.35703182E-02  0.16221976E-02  0.48586366E-02
  0.80790985E-02  0.12941349E-02  0.11622548E-01
  0.35396738E-02  0.44389380E-02 -0.12570572E-01
 -0.52615524E-02 -0.28321065E-02 -0.29647624E-02
  0.20087118E-02  0.37511574E-02 -0.15576675E-02
 -0.12707185E-02  0.27717015E-02  0.36920776E-02
  0.58310364E-02  0.14556668E-02  0.12612123E-02
  0.76665438E-02  0.51232120E-02  0.64634149E-02
  0.10468597E-01  0.59759632E-02 -0.77415504E-03
  0.45124437E-03 -0.55305837E-02  0.29910405E-02
 -0.29313038E-02  0.60456573E-02  0.59245256E-03
 -0.55576816E-03  0.75447002E-02  0.24217024E-02
 -0.54851758E-02 -0.16053110E-01  0.10749882E-01
  0.15117078E-02 -0.94155827E-03 -0.63110895E-02
  0.19963184E-02 -0.25422923E-02 -0.25366086E-02
 -0.15448641E-02  0.18211618E-03  0.97141973E-02
 -0.66737376E-02  0.14758741E-02  0.38961335E-02
 -0.53111298E-02 -0.15327089E-03  0.58464403E-02
  0.26354849E-02  0.57669811E-02 -0.56431067E-02
  0.28601996E-02  0.41422994E-02 -0.17044711E-01
 -0.89793901E-02  0.81570428E-04  0.21125065E-02
  0.34415921E-02  0.46937799E-02 -0.40248451E-02
 -0.83512732E-02  0.55441150E-02  0.26499001E-02
  0.32445890E-02 -0.67349533E-02 -0.25412406E-03
 -0.12106379E-02  0.41673577E-02 -0.92559554E-02
 -0.76782904E-02 -0.42972491E-02 -0.90226906E-02
 -0.41028257E-02  0.17735547E-02 -0.87680758E-03
  0.41126672E-02 -0.12627053E-01 -0.16146829E-02
  0.58100501E-02 -0.82679036E-02  0.28365485E-02
 -0.19782240E-02  0.11106831E-01  0.53933248E-02
  0.58771177E-02  0.32987396E-02 -0.18838187E-02
 -0.17700544E-02 -0.43104809E-02  0.40965076E-02
 -0.98124325E-02 -0.64145458E-02  0.10203412E-01
  0.27335268E-02  0.25546571E-02  0.15127146E-02
  0.12670060E-02 -0.98326253E-02 -0.40433557E-02
 -0.60880120E-02 -0.63427113E-02  0.68755502E-02
 -0.36111827E-02  0.40874349E-02 -0.26610327E-02
 -0.36310483E-02 -0.61918311E-02  0.38203612E-02
 -0.17688749E-03 -0.12295536E-02  0.52495693E-03
  0.12353267E-01 -0.12839369E-01  0.25501654E-02
  0.41419553E-03  0.52768006E-02  0.63097223E-03
  0.35066206E-02  0.57745039E-02 -0.19836804E-02
  0.34919115E-02  0.86176256E-02  0.60989485E-02
 -0.73068568E-02 -0.52369682E-02 -0.15301819E-02
 -0.35221129E-02 -0.95540912E-03 -0.68488585E-02
  0.85720467E-03 -0.62840913E-02 -0.12509191E-01
  0.12023673E-01  0.54892641E-02  0.51504466E-03
 -0.11006743E-01  0.50541601E-02 -0.36767428E-02
 -0.13524481E-01  0.35897987E-02  0.12078477E-02
  0.52589138E-02 -0.98386951E-02 -0.52340836E-02
 -0.10609765E-02  0.20257804E-02 -0.22890695E-03
 -0.14370817E-02  0.19299470E-02 -0.36581115E-02
 -0.99215541E-02  0.10692731E-01 -0.33612632E-02
 -0.53599285E-02 -0.12304256E-01 -0.47891195E-03
  0.35419945E-02 -0.97725051E-02 -0.40881842E-03
 -0.20731576E-02 -0.18233692E-02  0.15957122E-01
 -0.49074698E-02  0.36743687E-02  0.10505808E-02
  0.71195967E-02  0.75548855E-02  0.13691596E-02
 -0.62315852E-02 -0.82757848E-02  0.48063674E-02
 -0.70120500E-02 -0.39984520E-02 -0.17692554E-02
  0.68437813E-02  0.68851089E-02 -0.30130415E-03
 -0.17777157E-02 -0.12272969E-02  0.15137213E-01
  0.94419718E-02 -0.67606708E-02 -0.73615588E-02
  0.53683368E-02  0.20915743E-02  0.17005238E-02
  0.52869253E-02  0.77792290E-02  0.38550005E-02
  0.57854168E-03 -0.43925270E-03  0.42911940E-02
 -0.14269800E-02  0.41842879E-02 -0.92485694E-02
 -0.39317430E-02 -0.13336067E-01  0.52614310E-02
 -0.10720062E-02  0.20604412E-02 -0.81039934E-02
  0.22280676E-02  0.41887535E-02 -0.70364328E-02
 -0.31532982E-04  0.66752128E-02  0.41989396E-02
 -0.48892499E-02  0.32551326E-02  0.15412374E-01
 -0.11011224E-01  0.60625159E-02 -0.64547464E-02
  0.24135928E-02 -0.11418964E-01  0.49688840E-02
 -0.13414074E-01  0.15760937E-03  0.59142278E-02
 -0.29291698E-02  0.65395606E-02 -0.82634743E-02
  0.93494603E-02  0.87796456E-02 -0.72831231E-02
  0.26781465E-02  0.72273316E-02  0.53048449E-04
  0.82010461E-02  0.88189897E-02 -0.47466194E-02
  0.14489420E-01  0.23272342E-02 -0.10419662E-02
 -0.64394913E-02  0.46765532E-02 -0.30534337E-03
 -0.17646881E-04 -0.13123001E-02 -0.83637224E-02
  0.88400336E-02 -0.29437725E-02 -0.49420745E-02
  0.34911298E-02  0.10314865E-01 -0.77505868E-03
 -0.58389430E-02 -0.12274109E-02 -0.75219519E-03
  0.10910875E-02  0.24190193E-02 -0.27475102E-02
  0.37060839E-02  0.23806205E-02  0.47865456E-02
  0.29188376E-02 -0.66403454E-02 -0.19648996E-02
  0.55042375E-02 -0.11130384E-01 -0.84174206E-03
  0.28959373E-02 -0.29240034E-02 -0.77688805E-02
 -0.16084649E-02 -0.11621563E-01  0.36598721E-02
  0.28409948E-02 -0.11950645E-02  0.91567891E-02
 -0.48986990E-02  0.27738476E-02  0.28290786E-02
  0.16294218E-02  0.29822459E-02  0.11683903E-02
 -0.91131648E-02 -0.29718605E-02  0.16392991E-02
 -0.11652350E-01  0.63722555E-02  0.12985667E-02
  0.68304643E-02 -0.97124479E-03 -0.76384978E-02
 -0.38259059E-03 -0.11464364E-02 -0.96162368E-03
  0.75741837E-02  0.42452088E-02  0.14144397E-02
 -0.72467198E-02 -0.10003456E-01  0.17270261E-02
 -0.67579983E-03 -0.41894204E-02 -0.30406470E-02
 -0.27312667E-02  0.10910038E-02  0.62021877E-02
  0.48754476E-02 -0.74146885E-03 -0.52623353E-04
 -0.28521008E-02 -0.13846202E-02 -0.28035793E-02
  0.13116671E-02  0.13410804E-02  0.89578003E-02
  0.92442521E-02  0.68197204E-02  0.92448072E-02
 -0.52096143E-02  0.14179430E-03  0.59943429E-02
 -0.47112892E-02  0.18532007E-02  0.21101192E-02
 -0.27635717E-02  0.27191811E-02 -0.14989575E-02
 -0.86767177E-03  0.58292806E-02 -0.19295844E-02
 -0.51233808E-03 -0.32074585E-02  0.75467109E-02
 -0.56190004E-02  0.15554930E-02 -0.70745436E-02
  0.52305292E-02 -0.90251155E-03  0.12216790E-01
  0.88826105E-02 -0.20910618E-02  0.31848138E-02
  0.12325821E-01 -0.87318299E-03  0.60933712E-02
 -0.86446746E-02 -0.34267702E-02 -0.20041984E-05
 -0.63765352E-02  0.12585009E-01 -0.61364319E-02
 -0.31519358E-02 -0.12129825E-01 -0.27736428E-02
 -0.11647077E-02 -0.94891980E-02 -0.18940691E-02
  0.50288927E-02  0.68685086E-02  0.30680855E-02
 -0.31270981E-02  0.13602035E-02 -0.40656532E-02
  0.89515094E-04 -0.16870201E-02 -0.57862379E-03
 -0.16568287E-01 -0.38425748E-04 -0.43879506E-02
  0.23321129E-02  0.80356149E-02 -0.10345120E-01
 -0.43840281E-03 -0.11053082E-01  0.53747991E-02
 -0.13983036E-03 -0.60829618E-02  0.99279200E-02
 -0.31605248E-02  0.35621014E-02 -0.45501439E-02
 -0.46034940E-02  0.32452361E-02  0.31107126E-02
  0.22225194E-02  0.11556595E-01 -0.62460235E-02
  0.38491786E-02 -0.18582219E-01 -0.44023456E-04
 -0.76757658E-02 -0.43849489E-02  0.54773622E-03
  0.17212698E-02 -0.68822847E-02  0.12887501E-02
 -0.32732254E-03  0.41551441E-03 -0.87067607E-03
  0.13269087E-02  0.65556978E-02  0.79712071E-02
  0.39003170E-02  0.68008950E-02  0.14070500E-02
  0.79103965E-02  0.12052925E-02 -0.50480942E-02
  0.57468656E-02  0.50488962E-02  0.51412139E-03
 -0.13317366E-01 -0.65170600E-02 -0.74056375E-03
  0.25546347E-02 -0.16640025E-02  0.50014250E-02
 -0.22684607E-02  0.75397708E-02  0.86223921E-03
  0.40159268E-02  0.37078875E-02  0.51919199E-02
 -0.43148992E-02 -0.48050743E-02  0.15277569E-01
 -0.13094617E-01 -0.35415451E-04 -0.19783393E-03
  0.65777987E-02  0.61111742E-02 -0.69439978E-02
 -0.48737263E-03 -0.88933572E-02  0.80965982E-03
 -0.10381620E-03 -0.45491556E-02  0.39382739E-02
  0.85012707E-03  0.58371239E-02 -0.39641951E-02
 -0.88574623E-03  0.47800574E-02  0.10186866E-01
  0.21978162E-02  0.24690490E-02 -0.75125972E-02
  0.88197262E-02  0.20712056E-02  0.96657452E-02
 -0.20835994E-02 -0.94138144E-02  0.24335993E-03
  0.18584604E-02  0.26587649E-02  0.47023814E-02
  0.53146633E-02 -0.58956628E-02  0.50222934E-02
  0.47945993E-02  0.10095393E-01 -0.22447872E-02
 -0.53883541E-02 -0.86131150E-02  0.77666920E-02
 
           1
   1.00000000000000     
  0.57204476E+00  0.23369606E-02  0.00000000E+00  0.00000000E+00
  0.99503628E+00  0.34073178E-02  0.25924350E-02
  0.91105659E-01  0.12256268E+00  0.11086350E+00
  0.77055422E-02  0.98963462E+00  0.19301752E+00
  0.81888185E-01  0.93372249E-01  0.29272626E+00
  0.97763349E+00  0.98614777E+00  0.40438432E+00
  0.86022917E-01  0.94695812E-01  0.51833130E+00
  0.98218922E+00  0.98985380E+00  0.60026767E+00
  0.85531799E-01  0.92479814E-01  0.70416945E+00
  0.97497095E+00  0.99704129E+00  0.79716562E+00
  0.96415815E-01  0.10198190E+00  0.89030134E+00
  0.99696905E+00  0.20234013E+00  0.43980528E-02
  0.10377125E+00  0.31277774E+00  0.98075408E-01
  0.99823199E+00  0.20679371E+00  0.20772281E+00
  0.10605952E+00  0.29220147E+00  0.28787070E+00
  0.97550325E+00  0.17700718E+00  0.41254377E+00
  0.10175744E+00  0.28636174E+00  0.48122847E+00
  0.97992092E+00  0.20955947E+00  0.59362904E+00
  0.94108033E-01  0.27947952E+00  0.69834393E+00
  0.16469693E-02  0.20267181E+00  0.79931514E+00
  0.11007478E+00  0.27882574E+00  0.87847943E+00
  0.32687646E-01  0.37412838E+00  0.98161047E+00
  0.11137822E+00  0.47801483E+00  0.98354255E-01
  0.12995215E-01  0.39291496E+00  0.18941177E+00
  0.10296714E+00  0.47913992E+00  0.29904149E+00
  0.98702074E+00  0.37206416E+00  0.38512895E+00
  0.87426632E-01  0.46535057E+00  0.48159210E+00
  0.13178485E-01  0.39993573E+00  0.59317554E+00
  0.11077072E+00  0.53102387E+00  0.69296634E+00
  0.31374036E-02  0.41969909E+00  0.79807707E+00
  0.10989807E+00  0.50155666E+00  0.89796865E+00
  0.15588408E-01  0.60377550E+00  0.14157524E-03
  0.10803378E+00  0.70324317E+00  0.10477625E+00
  0.12018652E-01  0.59685841E+00  0.21603310E+00
  0.10231867E+00  0.70623695E+00  0.29812783E+00
  0.99026366E+00  0.59580962E+00  0.41384741E+00
  0.10342286E+00  0.71382817E+00  0.48757601E+00
  0.98418689E+00  0.58415586E+00  0.58369641E+00
  0.91528989E-01  0.70101953E+00  0.68824713E+00
  0.68723271E-02  0.60608122E+00  0.80033059E+00
  0.11152012E+00  0.72111292E+00  0.90604352E+00
  0.27837601E-01  0.79691253E+00  0.11366420E-01
  0.11854938E+00  0.88498539E+00  0.11190385E+00