xyz.scell: Ti256                        
   1.00000000000000     
    11.8985000000000003    0.0000000000000000    0.0000000000000000
     0.0000000000000000   20.6087999999999987    0.0000000000000000
     0.0000000000000000    0.0000000000000000   18.8815999999999988
   Ti
   256
Direct
  0.1122654724779667  0.9495540821189261  0.0611741319451823
  0.8881049511655625  0.0298927285720881  0.9490043325900288
  0.0065215610994583  0.0798112259872917  0.0659161671466471
  0.9894486661100433  0.9074571943906898  0.9300407778289896
  0.1324626376708904  0.9600599457229008  0.3127601799055070
  0.8722831979690751  0.0320738166678100  0.1830831158300237
  0.0065624870044311  0.0885928558992142  0.3136570744072436
  0.0211908054934261  0.8889148912007686  0.1956435238099211
  0.1195165517906885  0.9542686673264323  0.5574327945798430
  0.8995532085321558  0.0401844958224555  0.4310150539508176
  0.0047564214826393  0.0866772050277844  0.5512138449834268
  0.0092988531462166  0.9106411298863435  0.4320073237387307
  0.1284522518326251  0.9655927690811253  0.8141834915703525
  0.8838163530837481  0.0400995851549685  0.6779279109658889
  0.9966309736619997  0.0857429343449219  0.8096769981658882
  0.9758645843244788  0.9195051046211793  0.6870306305178511
  0.1236576614690142  0.2084404154436775  0.0463227831812389
  0.8829072277233392  0.2977682969884813  0.9441005120161934
  0.0139951823738780  0.3263503620822062  0.0680147732971261
  0.0034676938851400  0.1634907656752021  0.9311749081158756
  0.1191756896591921  0.2227066394515797  0.3078420010457407
  0.8786329510444040  0.2997110759567981  0.1902515919037479
  0.0123094570625058  0.3371511019827799  0.3091386948345903
  0.9934861881486544  0.1591075931976891  0.1780481022507799
  0.1172298867520835  0.2031359379050087  0.5653894378308315
  0.8820252774181785  0.2875694202336383  0.4336157776676848
  0.0198385341450806  0.3455457875676102  0.5565845078142267
  0.9944695271863428  0.1704649427091157  0.4305494600990009
  0.1390525369974574  0.2168537482045142  0.8169220344816704
  0.8677827706956704  0.2923048625180202  0.6857616664835986
  0.9845453555594422  0.3183513555437937  0.8144480262892837
  0.9779277056985136  0.1719547305803243  0.6870002173279633
  0.1129791723021919  0.4615011505772101  0.0674253384335725
  0.8689707429449376  0.5364758267608958  0.9346190532652101
  0.9957245072411682  0.5774648672713478  0.0510567585563601
  0.9976805659917076  0.4105426707401310  0.9362214964043089
  0.1368085626673883  0.4505860320345088  0.3199566676959925
  0.8732027007522045  0.5265327769543989  0.1757941618339835
  0.0042753701384921  0.5836625434910342  0.3183854507209665
  0.9937173309563151  0.4177828506711864  0.1859375652847076
  0.1398640310823141  0.4683203351379971  0.5716384360124537
  0.8960736062375531  0.5308274233364346  0.4463740052601842
  0.0046034654289194  0.5894553328460163  0.5651695720864278
  0.0078850809344336  0.4179996501600873  0.4409157028096238
  0.1193341444060349  0.4543845522694958  0.8134759023752012
  0.8744428572045233  0.5473835926716222  0.6868880349169335
  0.9917482741600210  0.5826239413713614  0.8088400437895127
  0.0202962322669516  0.4126070313158520  0.6853243675503422
  0.1111691017980197  0.6956503851822854  0.0615167275429438
  0.8568754722309896  0.7980194688508874  0.9421499818175401
  0.0119151687772002  0.8169717030110492  0.0577204584195193
  0.9872470639400147  0.6742726286752402  0.9285517129961754
  0.1132888731153033  0.6996621598278179  0.3106423945997466
  0.8765316080255029  0.7800307340281007  0.1946845787907285
  0.0239316027289582  0.8246940662674058  0.3167191208590849
  0.0004523569382080  0.6639131612234951  0.1766352029731122
  0.1079024593419791  0.7168588757557560  0.5628134970177149
  0.8974294237152011  0.7889524765646878  0.4440760171655639
  0.9764444770080478  0.8328606258308993  0.5706916723356804
  0.9933558396833730  0.6573652982214483  0.4456623757290314
  0.1304076925424338  0.7096366724934647  0.8122273341035681
  0.8399083990757561  0.8065169528066384  0.6981708611301517
  0.9930348387987031  0.8355522850049187  0.8174287045525230
  0.9861203115617319  0.6734155351457231  0.7020675198286530
  0.3492806747602064  0.9683364597786702  0.0624613335702398
  0.1114581246008500  0.0407708213342644  0.9440742391602656
  0.2328047707137796  0.0795149412248629  0.0690166907610869
  0.2352953895880727  0.9067083928564496  0.9383366775302678
  0.3804435359078169  0.9743698661629332  0.3157190894528179
  0.1235535167372835  0.0233290394931476  0.1936783442466476
  0.2534387973041060  0.0916235954123302  0.3145665797323861
  0.2594734736460773  0.9035544557648953  0.1819115680013098
  0.3577132138018709  0.9682659773494700  0.5593263890203385
  0.1453780806303927  0.0317381662565044  0.4381808684937590
  0.2720109381895242  0.0872860306088404  0.5541325175230429
  0.2663675965141918  0.9134387546198588  0.4334691052794225
  0.3689506303757179  0.9547518774822605  0.8018371940730141
  0.1326533810366977  0.0457268385840191  0.6851744824656338
  0.2477124543745850  0.0806320918631019  0.8174136427490361
  0.2393318191489493  0.9163830186036315  0.6796329448087225
  0.3860272114528893  0.2061425216685387  0.0633147508070018
  0.1228695129855429  0.2857541139034286  0.9316603495216795
  0.2503471081794090  0.3275526590265630  0.0668045050224528
  0.2441148175964143  0.1635538748676525  0.9343330658192446
  0.3720162948262394  0.2125191261257738  0.3178976230830387
  0.1229466985173871  0.2945477078522308  0.1858166236769899
  0.2471088924952288  0.3387750388017428  0.3155184640529433
  0.2408445211356613  0.1730840606532261  0.1777089677102754
  0.3913129038261290  0.2091905845189093  0.5595438960973390
  0.1451357776721451  0.2865966526444715  0.4457852263061505
  0.2488394495800762  0.3362715340063485  0.5800771954488808
  0.2381950591300235  0.1522073406935815  0.4285864759097652
  0.3704705993582403  0.2171051045734306  0.8253390031858093
  0.1260701744874492  0.2856552155764313  0.6993871743919247
  0.2626486085843259  0.3383959639294123  0.8248792147546712
  0.2459683141273215  0.1713733763824963  0.6817138206487572
  0.3937100116186051  0.4444667184652435  0.0535447917169336
  0.1416780420086757  0.5370799841678531  0.9418495248097142
  0.2613049225219523  0.5758417676249682  0.0657457639984757
  0.2447747970997209  0.4073171077097631  0.9390615720025427
  0.3775007395447693  0.4614971068707727  0.3077475738354554
  0.1063961120537778  0.5370600924175764  0.1828364520810494
  0.2549115123902855  0.5815199774525601  0.3094667924684479
  0.2596291620584794  0.4201451979248924  0.1925597484378293
  0.3833065394040501  0.4628483985820602  0.5705439279911031
  0.1305313520885166  0.5457507490030150  0.4300286364353464
  0.2462689770275943  0.5994592992964952  0.5713664314405502
  0.2583285077019919  0.4139624416079787  0.4571200409248070
  0.3672318031560160  0.4654826113690370  0.8192469489733948
  0.1119910179728317  0.5589639403693071  0.6906726030786889
  0.2445187997756580  0.5868994193400920  0.8074485326742921
  0.2643444885291026  0.4190789310563624  0.6811150365329248
  0.3756186885494759  0.7094715292398059  0.0639968083120967
  0.1300209995288143  0.7881322518068493  0.9372825724266177
  0.2612359713580960  0.8348890963735537  0.0504393698782298
  0.2432517453765081  0.6672255502850885  0.9472641870272100
  0.3761460585780165  0.7021168979777463  0.3112458455773348
  0.1441832157727276  0.7765452577710398  0.1865957300672196
  0.2579388600433827  0.8298722731320154  0.3099996831810784
  0.2462373925250587  0.6527180718915058  0.1814655090861003
  0.3726313591115726  0.7165513738345297  0.5607209908946971
  0.1559675161576680  0.7998881278613603  0.4271029245659071
  0.2472204669261299  0.8332490805432525  0.5612783818823618
  0.2550301497026450  0.6733928316561474  0.4394887659634806
  0.3624614652257654  0.7091581896600010  0.8120216718875084
  0.1091838938595119  0.8086028662201320  0.6879600106305522
  0.2385959182224603  0.8409336992317689  0.8128829023682027
  0.2557482969237518  0.6665023630825551  0.6851147539217513
  0.6307572212061991  0.9550834234679598  0.0623630090124002
  0.3745024431179341  0.0506190624340024  0.9343430901521045
  0.4732132450717231  0.0890207672797567  0.0687942272429276
  0.4955409784077267  0.9247626972858143  0.9476511665839349
  0.6300007839679327  0.9656978144947533  0.3075844679914337
  0.3671455011598174  0.0307175599146084  0.1933073979789370
  0.4948644243419084  0.0846143717038704  0.3123266163503299
  0.5048793245126492  0.9140674547270869  0.1819611961532643
  0.6259558619822120  0.9729384709550587  0.5714611101872733
  0.3941553213985957  0.0496547704309636  0.4379868807466186
  0.5056802060129448  0.0915478959366416  0.5625618631558847
  0.5404189679676539  0.9002474294348108  0.4363223423662717
  0.6044384879064031  0.9689556641727484  0.8107797955707160
  0.3851536532057576  0.0496683900971002  0.6811651324550290
  0.5014458981967634  0.0937605396765257  0.8253773590446721
  0.4855589291021683  0.9286165942730171  0.6786094636030143
  0.6117140739247773  0.1956702275108261  0.0658800115982677
  0.3790880023711628  0.2934093473774989  0.9450619584873408
  0.5091654109653131  0.3324385592044521  0.0531247308877206
  0.5188421379218152  0.1673626456755355  0.9339826956337188
  0.6127090381576525  0.2096893074809860  0.3178745809314811
  0.3753182145657055  0.2965564112564112  0.1838900582212847
  0.4962134626430585  0.3257782945383342  0.3113001408051121
  0.4974780011285918  0.1615590491311223  0.1950958985186936
  0.6290827391284249  0.2144461086637369  0.5577192981747121
  0.3656000013131197  0.2998006253217671  0.4437058048605290
  0.4801767357388893  0.3534555328312025  0.5658966049365268
  0.4977192392380424  0.1747065345602548  0.4370946822569097
  0.6398960425321292  0.2120137254356668  0.7977699356923160
  0.3971199570677038  0.2880472859158072  0.6942446180452677
  0.4958832250662082  0.3276472782158963  0.8118686156596867
  0.4961983791580443  0.1602340616027569  0.6952571159453316
  0.6369004500191463  0.4480173263714577  0.0632298754978173
  0.3748889844798138  0.5372471422372990  0.9409446099366922
  0.5064693688392704  0.5655228005181617  0.0621454636919610
  0.5262872228899369  0.4053436039195662  0.9304841033603977
  0.6259871282787338  0.4535201253648273  0.3243843206916212
  0.3604729209553263  0.5400559724725972  0.1849276564911030
  0.4943660028263912  0.5836782900697316  0.3170517823560133
  0.5085035539146164  0.4180120085496635  0.1897135247087069
  0.6582345438471592  0.4628530439073639  0.5680449362511666
  0.3851225575115859  0.5513495641111350  0.4458421458762272
  0.4978032663744802  0.5950552437138334  0.5822247543542017
  0.4860216021700293  0.4240011333287850  0.4232037943343449
  0.6249292540799222  0.4509990212541332  0.7991068873144992
  0.3479870321761604  0.5451779805858908  0.6908458558350744
  0.4915232611068681  0.5915148608663809  0.7976744123614778
  0.4792672291093371  0.4290934855466069  0.6991514502860121
  0.6242412150210899  0.7043229667953921  0.0584170337468779
  0.3672667164060155  0.7644734657766985  0.9323115038252406
  0.4858241526595641  0.8305912940994215  0.0543625041011908
  0.4878437976426426  0.6492068563714024  0.9438314027974970
  0.6411252866366286  0.7037202791373859  0.3065189816914469
  0.3949325582575656  0.7894511949851655  0.1779094343383631
  0.5119386313346601  0.8364342673364747  0.3060598626371957
  0.4975144198156340  0.6622088835088674  0.1718263672361075
  0.6194038007799406  0.7254726559750510  0.5635345803987013
  0.3938780002574458  0.7932819743604483  0.4357942572723867
  0.4906667086653500  0.8516267565421920  0.5649751112187017
  0.5112677622003909  0.6680373699436805  0.4344485892101869
  0.6074932598471184  0.7068577285353514  0.8249454735792450
  0.3681874410784572  0.7980196289018189  0.6965606326999707
  0.5066806749370354  0.8469526437568333  0.8256237928422711
  0.4838675183091084  0.6752200620077468  0.6895927050746915
  0.8731570873115034  0.9456861807474430  0.0493280323392451
  0.6202879462492623  0.0389806454222113  0.9384969534707558
  0.7372233011745474  0.0877241754173102  0.0657779640842830
  0.7402852755852267  0.9177281186808969  0.9293430602417976
  0.8789499205564050  0.9626694079223822  0.3140332275593473
  0.6217301477866417  0.0437886400168690  0.1920490529874064
  0.7541846545621648  0.0968577069098326  0.2986136392047497
  0.7723522259237452  0.9097304763153645  0.1812811688981329
  0.8626888315259721  0.9597108604919786  0.5599776670005643
  0.6364225539768900  0.0451613175368529  0.4357506892617125
  0.7432047963710094  0.0982239977194258  0.5491434858455376
  0.7605611016965723  0.9190904169445915  0.4374375816873181
  0.8731644003928977  0.9561879906947769  0.8094181039090603
  0.6244347595306615  0.0534048344387862  0.6935711465008596
  0.7531353532434929  0.0684266034351239  0.8173651716317860
  0.7395090125437942  0.9172375095440980  0.6936678949336386
  0.8715056369288467  0.1978538264779317  0.0545852114436268
  0.6351675928646240  0.2857317279509348  0.9279337529715510
  0.7371563077425360  0.3164708860595604  0.0702485398126016
  0.7466879449684418  0.1652361504651258  0.9245275494428392
  0.8963160842959617  0.2142714337895237  0.3007274140143825
  0.6124041731240787  0.2932370721466735  0.1879367329264535
  0.7478827446256685  0.3278070082673075  0.3135585491439779
  0.7453121911152425  0.1751175447182393  0.1795165727364148
  0.8797652074254184  0.2172729876211259  0.5552041914765493
  0.6030210254559724  0.2986361652173852  0.4483317355990215
  0.7666182694776927  0.3429857061291515  0.5519709166366099
  0.7605268922590782  0.1626140960946408  0.4280252145829975
  0.8783146892175754  0.2169801140223482  0.8198249750688285
  0.6299171530384466  0.2975218882122174  0.6745216072891543
  0.7513555370203168  0.3344201015892849  0.8063830681108082
  0.7605570828302110  0.1755252557319959  0.6797534704143320
  0.8713209672473010  0.4422379228127903  0.0569496418944771
  0.6137430781493933  0.5457716282201215  0.9316985406600350
  0.7367506675095319  0.5749130457854330  0.0659437424814605
  0.7386086851221144  0.4176548887231898  0.9286597958584210
  0.8802924703971791  0.4484749061776256  0.3144238043299463
  0.6227516607008975  0.5335799580960268  0.1966595696618544
  0.7457096615229760  0.5776185486656759  0.3072764910049327
  0.7507885859515585  0.4173962584713920  0.1902353379943988
  0.8845276849163826  0.4597453102661772  0.5752271857649238
  0.6466325823903326  0.5466507484938289  0.4545608897313971
  0.7622959041468977  0.5936112056223479  0.5704811691688667
  0.7624956124164204  0.4179563588179381  0.4335616484082294
  0.8722968051011893  0.4613400034750935  0.8136502146424377
  0.6271150430671084  0.5366422452570323  0.6946605664655130
  0.7530113985922131  0.5927729588132175  0.8150551987462116
  0.7343572343624669  0.4113594440682096  0.6901587431557162
  0.8586217703791212  0.6969371585634245  0.0613714765810203
  0.6197999183316290  0.7931432138716688  0.9408389513342079
  0.7375278712553004  0.8318012716970877  0.0611666730562450
  0.7364840571632323  0.6632152203475836  0.9444243785289308
  0.8683419024036587  0.7078345762791746  0.3260847117021480
  0.6321004878166266  0.7924919263449348  0.1802522932839780
  0.7634473096976722  0.8388200707654365  0.3274524303757113
  0.7507535969706550  0.6573914084727024  0.1753068300666664
  0.8823426673932119  0.7084663261150396  0.5773301947016535
  0.6376392082046065  0.7785124310453184  0.4304817878488311
  0.7312137661981686  0.8385098529615836  0.5527598846835303
  0.7569217773145344  0.6627393549057083  0.4396910771623558
  0.8532780265183316  0.7090944312327520  0.8181769671630141
  0.5992936936441087  0.7960991690756232  0.6886541713074874
  0.7403227592239868  0.8323669021742424  0.8169245280669862
  0.7330658806447369  0.6681752349823410  0.6943019828647357
 
 -0.92135182E-03 -0.64953613E-02 -0.15157820E-02
  0.82112200E-03 -0.63065362E-02  0.81368142E-03
 -0.21680080E-02  0.41930844E-02 -0.40553065E-02
 -0.62961295E-02 -0.30135253E-02  0.20332039E-02
 -0.85824490E-03  0.70334328E-03 -0.14200507E-02
  0.33431763E-02 -0.25416617E-02  0.45258144E-02
 -0.79775075E-02  0.32887589E-02 -0.74939798E-03
  0.22717050E-02  0.27974520E-02  0.66769470E-02
 -0.13387513E-02 -0.15546675E-02  0.13878188E-02
 -0.12637980E-02 -0.15668595E-02 -0.27544397E-03
  0.15814807E-02  0.73843191E-02 -0.49092874E-02
 -0.35038649E-04  0.16590289E-02  0.85784456E-02
  0.52507761E-02  0.75521516E-02  0.29673841E-02
 -0.80141654E-03  0.16422844E-02  0.91390772E-03
  0.13181814E-02  0.52038597E-02 -0.56545661E-02
  0.24965206E-02 -0.32968344E-02  0.24162048E-02
  0.11661303E-02 -0.21787910E-03  0.44020601E-02
  0.29351286E-02  0.98583732E-03  0.50856129E-03
  0.36349877E-02  0.17571167E-02  0.67197363E-03
  0.14444918E-03  0.35546006E-02  0.16545703E-03
 -0.27904850E-03  0.17323182E-02  0.52465061E-03
  0.71450474E-02 -0.68814417E-03 -0.40128919E-02
 -0.66602612E-02  0.26017929E-03  0.23563926E-02
 -0.52884536E-02  0.11755934E-02  0.36720746E-02
 -0.69755601E-02  0.67674046E-02  0.14631037E-02
 -0.38665358E-03 -0.40456941E-02  0.28594221E-02
  0.62365948E-02 -0.14439938E-02 -0.53867406E-02
  0.34582997E-02 -0.99384663E-03 -0.27005649E-02
 -0.17557260E-03 -0.24974001E-02 -0.16186292E-02
 -0.36488839E-02 -0.26380878E-02  0.51743744E-02
 -0.26490068E-02  0.14695355E-02 -0.26205576E-02
 -0.11285064E-01 -0.83190027E-03  0.33701587E-02
 -0.74145227E-02  0.68474871E-02  0.91020327E-02
 -0.18851834E-02  0.33553678E-02  0.14159533E-02
  0.61070112E-02  0.11981219E-02 -0.26498880E-03
  0.25288810E-03  0.83263367E-02  0.33005574E-02
 -0.94391179E-03 -0.22357822E-02  0.34536316E-02
 -0.31278033E-02 -0.56339262E-02 -0.25939868E-02
 -0.47544224E-02  0.38624298E-03  0.30553449E-02
 -0.17160358E-02 -0.38558348E-02  0.40464882E-02
  0.44526517E-02 -0.39873630E-02  0.36354203E-02
 -0.37335739E-02 -0.12729980E-02 -0.10289996E-01
  0.39724390E-02  0.45016631E-03 -0.36909608E-02
 -0.83792723E-02  0.22374019E-02  0.38351641E-02
 -0.41398809E-02 -0.12928523E-02 -0.82885196E-02
  0.28944523E-02  0.70949067E-02  0.49263710E-02
 -0.55802030E-02  0.46310127E-02  0.17546792E-02
 -0.81966819E-03  0.26877804E-03 -0.21465205E-03
  0.32128199E-02  0.45991670E-03  0.96318102E-03
  0.90065113E-03 -0.26152240E-02 -0.27654165E-03
  0.63347365E-03  0.45643467E-02 -0.46231218E-02
  0.14329739E-02 -0.90388387E-03  0.45727500E-03
 -0.48941011E-02  0.29051805E-03 -0.13742509E-03
  0.15152096E-02 -0.43890478E-02 -0.14897947E-02
 -0.11441758E-02  0.17739824E-02 -0.26795973E-02
  0.28823384E-02 -0.29592752E-02 -0.60459654E-02
 -0.47745844E-02 -0.37439366E-02 -0.32948654E-02
  0.88122923E-03 -0.27584612E-02  0.16742937E-02
  0.93725982E-02 -0.12358461E-02 -0.38148879E-02
 -0.59693595E-03  0.54559253E-02  0.24458822E-02
  0.52399392E-02 -0.46690657E-02 -0.32796688E-02
 -0.41190040E-02  0.19765548E-02  0.60170124E-02
 -0.15013138E-02 -0.32116825E-02 -0.44023009E-02
  0.25798965E-03 -0.43244609E-02 -0.13472174E-02
 -0.65752088E-02 -0.29295334E-02 -0.88997650E-03
 -0.37500345E-02  0.92191429E-03 -0.51517059E-03
 -0.10682283E-02  0.35890515E-02  0.28621916E-02
  0.57340232E-02  0.37164182E-02  0.21233802E-03
 -0.20233142E-02 -0.52401812E-02 -0.60794261E-02
  0.92482333E-02  0.38077332E-02  0.18000974E-03
 -0.14202496E-02 -0.21466847E-02  0.83087671E-02
  0.27285339E-02  0.21491821E-02 -0.17251857E-02
 -0.10125322E-02  0.56919497E-02  0.37360172E-02
 -0.24916562E-02  0.38142186E-02 -0.24575401E-02
  0.22569631E-03  0.15542927E-02  0.31677844E-02
  0.30395893E-02  0.26784481E-02 -0.68286774E-03
  0.52641332E-02 -0.16158224E-02 -0.56884083E-02
  0.23311351E-03 -0.75637437E-02 -0.32954943E-02
  0.28362748E-02  0.10725326E-02 -0.31165354E-02
 -0.20203962E-02  0.10311349E-02 -0.27236519E-02
  0.22158228E-02  0.65011770E-03  0.53214925E-02
  0.36101570E-02  0.46157199E-02  0.11876696E-02
  0.70825498E-04 -0.33104508E-02  0.10549010E-02
 -0.66685851E-03  0.30960409E-02 -0.18379704E-02
 -0.16156501E-02  0.22944159E-04 -0.66115799E-02
 -0.28756169E-02 -0.39416817E-02  0.14878551E-03
 -0.33904590E-04  0.77781260E-02  0.67073641E-03
  0.66214070E-02 -0.57408648E-03  0.74055558E-03
 -0.47637332E-02  0.81627581E-02  0.90863397E-03
  0.99348645E-05  0.77580345E-03 -0.61529686E-02
  0.14927702E-02  0.76907397E-03 -0.20679306E-02
 -0.79076620E-02  0.14834282E-02  0.16916775E-02
 -0.41918198E-02 -0.48384682E-02  0.12978369E-02
 -0.24970725E-02  0.84669081E-02  0.14942959E-02
  0.36881198E-02  0.54183820E-03  0.38726921E-02
  0.10191699E-02  0.76023325E-03 -0.21643225E-02
  0.29979026E-02 -0.52165544E-02  0.38032226E-02
 -0.40320406E-02 -0.15553374E-02  0.39852662E-02
  0.19904746E-03 -0.36294081E-02  0.17006684E-02
  0.15844901E-02  0.13001955E-01  0.85603823E-03
  0.23898169E-02  0.26225572E-02  0.16051675E-02
 -0.25057622E-03 -0.33564375E-02 -0.32411601E-02
 -0.30442804E-02 -0.35210540E-02 -0.58253848E-03
  0.53444639E-02  0.43143261E-02  0.59303335E-03
 -0.53986255E-02  0.27284678E-02  0.56089636E-02
  0.17238184E-03  0.40507535E-02 -0.22542429E-02
 -0.32166282E-02 -0.19751492E-02  0.26242720E-02
  0.22304098E-02  0.78179375E-02  0.47668256E-03
 -0.27071068E-02 -0.47792600E-02  0.47445731E-02
 -0.28754464E-02 -0.14971851E-03 -0.43004030E-02
 -0.27863976E-02 -0.52583374E-02  0.35644360E-02
  0.52412696E-03  0.19739025E-03 -0.49445704E-02
 -0.30422869E-02  0.83626943E-02 -0.38833376E-02
  0.13712942E-02 -0.23897665E-02  0.77365895E-02
 -0.26342172E-02 -0.11085603E-02 -0.16500321E-02
  0.47024377E-02 -0.35603628E-02 -0.75452600E-03
 -0.95178095E-03  0.20304643E-02 -0.22060042E-02
 -0.26724811E-02 -0.31790606E-02 -0.87716734E-02
  0.96711493E-02 -0.23948919E-02  0.13228716E-02
  0.75144143E-04  0.56226899E-03 -0.43290854E-02
 -0.47357556E-02  0.32327920E-02 -0.13275941E-02
 -0.39264632E-02 -0.82639180E-02 -0.17299688E-02
  0.32333509E-02 -0.41362525E-02 -0.38944324E-02
  0.29154148E-02  0.61124784E-03  0.38037558E-03
  0.19520607E-02 -0.33158244E-04 -0.18603521E-03
  0.21208380E-02 -0.14588678E-02  0.13746605E-02
  0.15670162E-02 -0.12267228E-02 -0.31555689E-02
  0.49814711E-02 -0.35445916E-02  0.32622402E-03
  0.31644971E-02 -0.35891451E-02 -0.10375371E-02
 -0.58617647E-02 -0.15671340E-02 -0.14639437E-02
 -0.13052833E-02 -0.33197495E-02  0.45829988E-02
  0.23089306E-02 -0.72474395E-03  0.70154556E-04
  0.59304544E-02 -0.35330892E-02  0.41224355E-02
 -0.58969051E-02 -0.17617001E-02  0.34670459E-02
 -0.23380047E-02  0.10732382E-02 -0.11984759E-02
 -0.42339456E-02  0.19916429E-02 -0.25799363E-02
 -0.36891544E-02 -0.51933238E-03 -0.47134841E-02
 -0.34510094E-02 -0.22548108E-03 -0.28004914E-02
  0.26861376E-02 -0.15676447E-02  0.45732633E-02
  0.33163217E-02 -0.33521716E-02 -0.74859600E-03
  0.11817270E-02 -0.32334422E-03  0.84821102E-02
  0.19784927E-02  0.13250755E-02 -0.48413736E-03
  0.22207015E-02  0.99479628E-02 -0.25159996E-02
 -0.55504274E-02  0.57674914E-02  0.17037579E-02
  0.27822943E-02 -0.23720037E-02  0.31663519E-02
 -0.32857041E-02 -0.15969825E-02 -0.11075352E-02
 -0.32098151E-02 -0.33188442E-02  0.33287744E-02
  0.33561188E-02 -0.74826466E-02 -0.39136306E-02
 -0.11761765E-02  0.19761622E-02  0.22420330E-02
  0.15845246E-02  0.23766027E-02 -0.12349109E-02
  0.21467192E-02  0.57467399E-03 -0.65599879E-03
 -0.26136838E-02  0.39348841E-02 -0.60377457E-03
 -0.26817718E-02 -0.30754507E-02  0.39319400E-02
  0.36093179E-02 -0.23328397E-02  0.56451771E-02
 -0.23283770E-02 -0.67590836E-03 -0.23680736E-02
 -0.49018459E-03 -0.37352365E-02 -0.14560998E-02
  0.95993436E-03  0.12677690E-02  0.23290122E-02
  0.60668135E-03  0.39146826E-02 -0.54155280E-02
  0.66640552E-02  0.83478329E-02  0.11084890E-02
  0.56740165E-02  0.18770338E-02 -0.11224417E-02
 -0.10569845E-02  0.24031038E-02 -0.39506853E-02
  0.77157559E-02 -0.71293078E-02  0.66298371E-02
 -0.33660687E-02  0.64038682E-04 -0.65219410E-04
  0.41469653E-02  0.18232786E-02 -0.54377250E-02
 -0.75171978E-02  0.12405111E-02 -0.32920391E-02
 -0.15749692E-02 -0.36768167E-02  0.28959788E-02
  0.24156000E-02 -0.20763314E-02 -0.31851981E-02
 -0.34405079E-02  0.48967673E-02 -0.34490983E-02
  0.90623812E-03 -0.20896797E-02  0.31104821E-02
  0.69239659E-03 -0.13726148E-02  0.80037015E-03
  0.69187342E-02  0.37310587E-02  0.38083333E-02
 -0.23452556E-03 -0.22806993E-02  0.58131033E-02
 -0.19294036E-02 -0.21032130E-02 -0.86639448E-04
  0.25785277E-03  0.29005325E-02 -0.57435966E-03
 -0.41957485E-02 -0.24511830E-02 -0.19153131E-02
  0.52812822E-02  0.46179324E-02  0.88575517E-03
  0.95758022E-04 -0.40531731E-02 -0.47942827E-02
 -0.77452496E-03 -0.69568912E-03 -0.18824531E-02
 -0.35717041E-02 -0.22708798E-02  0.10407928E-04
  0.26010416E-03  0.61264374E-02 -0.36884524E-02
  0.24610683E-02  0.36110197E-02 -0.10967068E-02
 -0.15673669E-02 -0.87464402E-04 -0.13809673E-02
  0.12619821E-02 -0.29044691E-04  0.11533623E-02
 -0.28679411E-02 -0.86507251E-03 -0.54640641E-02
 -0.92550156E-02 -0.31320153E-02 -0.91118867E-03
  0.76329534E-02  0.52123477E-03  0.40021208E-02
  0.27563921E-02 -0.39335517E-02  0.68563442E-02
  0.17847716E-02  0.34141591E-03  0.15116252E-02
 -0.56085336E-02 -0.35598875E-02  0.34083461E-02
 -0.47739994E-02 -0.47266379E-03 -0.12717167E-02
  0.30808810E-03  0.15242125E-02  0.27955894E-02
  0.63937787E-02  0.22399144E-02  0.19141520E-03
  0.46077046E-02 -0.45521161E-02  0.10455261E-02
  0.81768358E-02  0.41701697E-02 -0.32004388E-02
  0.71725945E-02 -0.48035167E-02  0.38809232E-03
  0.33260115E-02 -0.12892097E-02  0.21247180E-02
  0.15137793E-02  0.48093769E-02  0.13149177E-02
  0.12313614E-02 -0.44275802E-02  0.25612505E-02
  0.66206562E-02  0.81941194E-03  0.62994478E-02
 -0.22581337E-02 -0.46576970E-02  0.54770873E-02
  0.30903476E-02 -0.13106033E-02 -0.45062797E-02
  0.39312107E-02  0.35886626E-03  0.53226877E-02
  0.73202358E-02  0.21937091E-02 -0.68056072E-02
 -0.48375990E-03  0.41624449E-02  0.11639064E-03
  0.55793379E-02  0.25650972E-02  0.44160733E-02
  0.30532939E-02 -0.70248067E-02  0.31273414E-02
 -0.16201713E-02 -0.33377312E-02 -0.67184927E-02
 -0.42099832E-03 -0.35589307E-02 -0.30206788E-02
  0.13393623E-02  0.75951556E-02  0.29504415E-02
  0.50455836E-02  0.21084735E-02  0.60017686E-02
  0.25701548E-02 -0.57983173E-02 -0.50680856E-03
 -0.19892147E-03 -0.23736914E-02  0.23416491E-02
 -0.41286754E-02 -0.43158652E-02  0.65648622E-03
 -0.14601400E-02 -0.75242326E-02  0.53525574E-02
 -0.78829357E-02 -0.55297570E-03 -0.56375217E-02
 -0.27093495E-02  0.37185067E-02  0.57699266E-03
 -0.61220314E-02 -0.25077403E-02 -0.38688362E-02
 -0.37796691E-02  0.35568509E-02  0.35793917E-03
  0.47614229E-02  0.71716681E-03 -0.52708809E-02
 -0.76298302E-04  0.47581032E-02  0.41453027E-02
  0.53914563E-02 -0.22270551E-02  0.29044579E-02
 -0.45285241E-03 -0.18505054E-02 -0.41136372E-02
  0.30466996E-02  0.32037313E-04 -0.93808968E-02
  0.16703758E-03  0.71828508E-02 -0.72861753E-03
 -0.27042827E-02 -0.17589705E-02 -0.35089055E-03
 -0.10558484E-02  0.34568235E-03 -0.36483107E-02
  0.14909773E-02  0.29008971E-02  0.55724749E-02
 -0.78625416E-02  0.25002380E-02 -0.34081673E-02
  0.19810885E-02 -0.46342076E-02  0.35974270E-02
  0.12149255E-02 -0.50742149E-02  0.33195140E-02
 -0.92445564E-03 -0.42051510E-02  0.13679708E-02
 -0.51077552E-02  0.33085270E-02  0.13933129E-04
  0.23132927E-02 -0.15683993E-02  0.29457189E-02
  0.37646704E-02  0.48167492E-02  0.23228826E-02
  0.12826117E-02  0.19151931E-02  0.17013835E-02
  0.37645151E-03 -0.32504479E-02  0.26363935E-02
  0.17151135E-02 -0.46408021E-02  0.19562561E-05
 -0.31690520E-02 -0.36443815E-02  0.37314389E-02
 -0.52963624E-03 -0.21128543E-02 -0.12997115E-02
 -0.57422735E-02 -0.70114703E-02 -0.49749737E-02
 -0.48517386E-02 -0.51461430E-02  0.30567001E-02
 -0.16787286E-02  0.23833551E-02  0.71208833E-03
  0.24617551E-02  0.40706854E-03 -0.41020709E-02
 -0.14277645E-02 -0.27988518E-02 -0.45268790E-02
  0.26833289E-02 -0.57472733E-02 -0.21040171E-02
  0.43774592E-03  0.53030042E-02 -0.18850251E-02
  0.15885910E-02  0.58801745E-02  0.63381157E-03
  0.19904036E-03 -0.14589552E-02 -0.13859857E-03
 -0.34143654E-02 -0.14653002E-02 -0.67581089E-02
 -0.24012198E-02  0.16122882E-02 -0.58781432E-03
 -0.69351661E-02  0.27235074E-02  0.48249133E-02
  0.14929236E-02  0.48084468E-03 -0.34240673E-02
  0.11505122E-02  0.63776761E-03 -0.27152374E-02
 -0.41769907E-02 -0.34752696E-02 -0.14424876E-02
  0.50627343E-02  0.23137107E-02 -0.46243167E-02
 -0.13605592E-02  0.27577025E-02 -0.71807144E-02
 
           1
   2.00000000000000     
  0.10000000E+01  0.00000000E+00  0.00000000E+00  0.00000000E+00
  0.11211060E+00  0.94892373E+00  0.61013575E-01
  0.88824297E+00  0.29280705E-01  0.94909052E+00
  0.61571441E-02  0.80218148E-01  0.65486616E-01
  0.98839036E+00  0.90716474E+00  0.93025614E+00
  0.13231838E+00  0.96012820E+00  0.31260976E+00
  0.87284515E+00  0.31827159E-01  0.18356250E+00
  0.52215604E-02  0.88912017E-01  0.31357770E+00
  0.21572653E-01  0.88918637E+00  0.19635077E+00
  0.11929152E+00  0.95411779E+00  0.55757980E+00
  0.89934078E+00  0.40032439E-01  0.43098588E+00
  0.50222501E-02  0.87393823E-01  0.55069384E+00
  0.92929636E-02  0.91080213E+00  0.43291598E+00
  0.12933485E+00  0.96632567E+00  0.81449781E+00
  0.88368164E+00  0.40258962E-01  0.67802472E+00
  0.99685254E+00  0.86247948E-01  0.80907805E+00
  0.97628422E+00  0.91918516E+00  0.68728656E+00
  0.12385367E+00  0.20841927E+00  0.46789064E-01
  0.88340059E+00  0.29786397E+00  0.94415438E+00
  0.14606182E-01  0.32652088E+00  0.68085951E-01
  0.34919741E-02  0.16383573E+00  0.93119243E+00
  0.11912878E+00  0.22287475E+00  0.30789757E+00
  0.87983395E+00  0.29964429E+00  0.18982653E+00
  0.11189944E-01  0.33717635E+00  0.30938829E+00
  0.99259726E+00  0.15922168E+00  0.17843706E+00
  0.11605738E+00  0.20379269E+00  0.56554441E+00
  0.88196029E+00  0.28717680E+00  0.43391866E+00
  0.20886833E-01  0.34540565E+00  0.55601393E+00
  0.99505083E+00  0.17036849E+00  0.43026341E+00
  0.13902303E+00  0.21661139E+00  0.81675058E+00